 # Version information for this restart file 
 # current date 2023-12-13 19:23:25.074
 # current working dir /scratch/work/courses/CHEM-GA-2671-2023fa/students/hz2750/comp-lab-class-2023/Week12/Runs/Proton
 # Program compiled at                              Sat Dec 12 18:27:15 EST 2020
 # Program compiled on                                         cs001.nyu.cluster
 # Program compiled for                                                nyu-intel
 # Source code revision number                                       git:8c64c6e
 &GLOBAL
   PRINT_LEVEL  LOW
   PROJECT_NAME proton_aimd_1ns_every0.5fs
   RUN_TYPE  MD
   WALLTIME 21600
 &END GLOBAL
 &MOTION
   &GEO_OPT
     OPTIMIZER  BFGS
     MAX_ITER  100
     MAX_DR     3.0000000000000001E-03
     &BFGS
     &END BFGS
   &END GEO_OPT
   &MD
     ENSEMBLE  NVT
     STEPS  2000
     TIMESTEP     4.9999999999999994E-01
     STEP_START_VAL  500
     TIME_START_VAL     2.4999999999999795E+02
     ECONS_START_VAL    -1.1018977433487325E+03
     TEMPERATURE     3.0000000000000000E+02
     &THERMOSTAT
       TYPE  GLE
       REGION  MASSIVE
       &GLE
         NDIM  5
         A_SCALE     1.0000000000000000E+00
         A_LIST     1.8595758612559999E+02    2.7263853498399998E-01    1.1526100454610001E+01   -3.6414578262600003E+01 \
             2.3173375816020001E+02
         A_LIST    -2.7809524712060002E-01    8.5951591808710006E-05    7.2189048017650004E-01   -1.9844539343859999E-01 \
             4.2409257583420001E-01
         A_LIST    -1.4825808131210000E+01   -7.2189048017650004E-01    1.3590902121280000E+00    5.1498896280349999E+00 \
            -9.9949268450990001E+00
         A_LIST    -1.0372189126880000E+01    1.9844539343859999E-01   -5.1498896280349999E+00    2.6661910891169999E+01 \
             1.1507715495310000E+01
         A_LIST     2.1801346360420001E+02   -4.2409257583420001E-01    9.9949268450990001E+00   -1.1507715495310000E+01 \
             3.0958394565589998E+02
         &THERMOSTAT_ENERGY
              -4.0707948670645738E-03
              -3.1549468886250180E-04
              -2.3751356289339301E-03
               2.1528254078583206E-03
              -5.2644964007234445E-03
               5.5851185167943001E-03
              -2.9896450363077376E-03
              -4.7948918011762971E-03
               5.4052896643886185E-03
               1.5466789467694986E-03
               4.4369073355628227E-03
              -1.6513078393778531E-03
               7.4482272670974266E-03
              -4.1630647684244015E-03
              -9.6698620150579672E-04
              -5.3246171718199665E-03
               3.5416871825885449E-03
              -2.6376698430993846E-03
               5.9630896535341239E-03
               1.4033730461414148E-03
               1.3406381566389910E-03
              -2.0098639063929049E-03
              -1.1745424832315422E-03
               2.9744329375689066E-03
               1.2454669492522280E-03
               4.0985489850951220E-04
              -8.5820519492893596E-04
               4.7253147054848819E-03
               1.1768315394451259E-03
               8.0707679967240706E-04
              -4.9836489671272084E-03
               2.2938183768641614E-03
               1.4520972193980001E-03
              -1.0625262012471117E-04
              -5.0145960747162053E-04
               4.5088739102138739E-03
               2.6622896691865590E-04
               1.0817178066408991E-04
               1.3257918571775963E-03
              -3.6349668807591712E-03
              -4.1934352792312836E-04
              -1.2006089655656072E-03
              -1.6871408694285806E-04
               2.2394370976759992E-03
              -6.2617268089224581E-03
               7.2965970931036870E-04
               1.1846967132252856E-02
              -2.2778036275756908E-03
               1.1661385978594566E-02
               1.1565540558049576E-02
               1.4127250856896418E-02
              -3.4402917037711532E-03
               2.1492057501080793E-02
               1.3777163756510188E-02
              -6.1714264609223531E-03
               8.3223947111458357E-04
               1.8691531518649968E-04
              -1.4180846805948799E-03
               9.2730433908169729E-04
               2.8790171251027535E-03
               1.3667311135970501E-03
               1.4994248318529713E-03
               3.7056469762775063E-03
               1.9816915722921657E-03
              -2.9157366006898186E-03
              -1.9957821841322734E-03
              -5.1593307703342783E-03
               2.6452230097971257E-03
               2.8727511896604503E-03
               3.7942301969467341E-03
              -7.6506157498031546E-04
               3.0868684474527164E-05
              -2.2819441197906472E-03
               3.3758803116086286E-03
              -4.1083858065324392E-04
              -4.7959778390303607E-03
               4.1337500456102320E-03
               7.9353853564053372E-03
               9.8361125217910801E-03
              -5.6735842458503737E-03
              -3.4763255037748983E-03
              -1.2432298687505687E-03
               1.8970931852126563E-03
              -2.2681766585187506E-03
               1.9718398866290041E-03
               6.7453890544336631E-05
              -7.0977346796953812E-03
               3.3696966317644178E-03
               1.2206539830662657E-03
              -6.5961612614802141E-04
               3.6814410066034553E-03
              -4.5867563420322723E-03
               1.9282870737810855E-03
              -3.5739874397827435E-03
              -7.5421196376128409E-03
               4.0284462274406537E-03
               2.0338262794161038E-03
              -3.7762178745748244E-04
               2.3294105671129231E-03
               5.0777437836065017E-03
               5.2322259248039323E-03
              -3.5007247191738617E-03
               3.5973512069117338E-03
               1.4768383952490576E-02
              -4.1004251053280673E-04
               1.0701796712441120E-02
               2.3329644177384645E-02
               1.4537300988344241E-02
               3.8016867738693964E-03
              -1.8788156199862004E-03
               3.4184053658416341E-03
               7.3196429023195152E-05
               2.5091400300784835E-03
               2.0912589385723543E-03
              -6.8891109608471262E-04
               8.5189331064122239E-03
              -1.4247830846782498E-02
               2.3536707972282808E-03
              -1.5417288160553540E-03
              -6.8693246151592760E-04
               3.5322219845333952E-03
               1.8924975960622219E-03
              -2.5696986505998236E-03
               1.8281070771966148E-03
              -2.7221571564909280E-04
               2.4999698822199034E-03
               9.4918773245666042E-04
               2.6853786778314637E-03
               3.3054634233440597E-03
               4.6992384516371510E-03
              -7.2341722357486624E-03
               1.4056175055588399E-03
              -3.4627993595266479E-03
               4.2673181187349515E-03
              -3.7325317533648673E-03
              -3.6766193281885225E-04
              -4.4589543450401000E-04
              -5.8850119490348805E-04
               3.6054030791235628E-03
              -6.1264407197219135E-03
               7.9237080290611214E-03
              -1.0675379360039944E-04
               3.3408604269553601E-03
              -2.4312524392012800E-03
              -2.3040467689294034E-03
              -4.5010515676106710E-03
               1.4563239174265445E-03
              -1.0202804758185796E-03
              -2.5203443342190872E-03
               7.4650044150893456E-03
              -1.7881707899574878E-03
               3.7301362179913899E-03
              -2.2984222789126868E-03
              -2.1016699939484565E-04
              -1.7150174343503468E-04
              -2.5053479005092971E-03
               3.2173690204351998E-03
               4.7869596478778871E-03
              -1.9792994759049976E-03
               4.9620932931347490E-03
              -4.9303025419330177E-03
               1.9586348180677011E-03
              -2.7254372505206952E-03
               1.1049314313125453E-03
               2.0657723774598464E-03
               3.6856741323301810E-03
               3.1170688231018642E-03
              -6.0818071772790749E-03
              -7.4805419800270702E-03
               4.2145084333580322E-03
               1.7351934847324693E-03
               2.5579530717933651E-03
               3.9119982835193520E-03
               6.3606665764406522E-03
              -5.0013260617061475E-03
               1.5189038993896531E-03
               2.1390970767672470E-04
               2.5456045650382930E-01
               6.4174279651999427E-02
               1.4330322370234764E-02
              -1.2016715831580933E-03
               9.2176382154726287E-04
               3.3522830029087914E-03
              -8.4019957645957224E-03
               2.4510819936194124E-03
              -2.1013591707115921E-04
              -1.2748228274315735E-03
               7.0033245850266825E-03
              -3.4801075332929667E-03
              -1.2504739705217285E-03
               2.6338638933808001E-03
              -3.8118434423234657E-03
               3.9593446226588889E-03
               5.4132812876281941E-05
               9.0190526984661190E-04
              -4.0024052501405581E-03
              -8.4386893375681883E-04
               8.2517635681857463E-05
              -1.8258870267902324E-03
               5.7718852675109778E-05
               3.6396193477120152E-04
              -1.6063436067013672E-03
               4.4438087119953971E-03
              -1.8606544085874956E-03
              -7.9705139040933161E-03
              -6.1204320416100965E-04
              -2.4460142832824576E-03
              -1.5008909245072459E-03
              -1.7749490307053684E-03
               2.6838127167224017E-03
              -1.1878869587602493E-03
               8.0503832649642571E-04
               6.4138489275454161E-03
              -5.7405642135053211E-03
               5.5752900802452637E-03
              -7.6759978017660853E-04
              -3.2267953466117343E-03
               1.5684673007706651E-03
              -1.4501790105924373E-03
               5.6836390175302011E-03
               1.2039562958233645E-02
              -5.4352180839232263E-04
               4.0587466767732800E-03
              -4.6541295852640125E-03
              -8.9041806258044753E-03
               5.2870878646156562E-03
               6.9376656097077034E-04
               6.0624977848191602E-03
              -1.4997486241145349E-04
               3.6264661419079841E-03
              -7.3298205537478895E-03
               6.4575140239765067E-03
               1.0456946164342725E-02
              -3.1988782025528122E-03
              -2.0449429248218262E-05
              -9.4361878840148300E-04
              -1.7863792985803747E-03
               2.8161037718374367E-04
               5.5939620062993934E-03
               4.8451983467113992E-04
              -3.1521955100722041E-03
               2.2573637974625298E-04
               3.5666201619957054E-03
               3.2983478251572104E-03
              -2.8810836457287010E-03
               1.6336171084664146E-03
              -3.9131392284894604E-04
              -1.2914918705877988E-03
               4.1763873512182085E-04
              -4.7220443797558456E-03
               2.5034979014564888E-03
              -8.2365528937620362E-04
              -3.1828860656877276E-03
              -1.8053302763951955E-05
               7.9852029359350502E-06
              -5.5795978174466732E-03
               4.1632697982201825E-03
               1.2234732917999144E-03
               1.5046538946948710E-03
              -5.4489842240355510E-03
               7.6873584451394904E-03
               7.4418242047647647E-04
               1.8831189467377195E-03
               5.0451199369434766E-03
              -1.1037169559816936E-03
              -6.5992434074497357E-03
               5.1691917859256909E-03
               3.6134774646523024E-02
               1.1390101478638457E-02
               2.4402962163669138E-02
              -2.5940772437813586E-03
              -1.3380020250130923E-03
               1.3973595446629032E-03
               3.5693702481317275E-03
               4.6465938400351770E-04
              -3.0002682119847682E-03
              -6.8414326645046403E-03
               1.5135371735229648E-03
              -1.9544353334864633E-03
               1.1718911843740525E-04
              -1.9846028800013897E-03
               6.4541503306048626E-03
               6.6304519902299196E-03
              -1.7721383108757475E-04
              -8.4585273450789276E-03
               6.8357320011328557E-03
              -7.1543122245310735E-04
              -2.2193848755401734E-03
              -1.6220221551570052E-03
               5.4314653852653534E-03
               4.7940855745612349E-04
               7.9451612989018382E-03
              -3.5398674843791279E-03
              -5.2801636617342922E-04
               1.3820843263246787E-03
               1.4035959381574791E-03
              -7.3866192564977689E-03
              -1.0502708676401037E-03
               3.0923758717226707E-03
              -4.6964039538468643E-05
              -4.2343895533505493E-03
               3.7055660464695422E-03
               3.2729853798775304E-03
               2.5544413598622089E-04
               2.5708403144263561E-03
              -2.2579864879797135E-03
               1.4401510696531658E-03
               2.4704510036147754E-03
              -3.8222683247849808E-03
               5.3857018511067455E-03
              -9.3797741757529725E-04
              -3.1389615540237527E-03
               5.0503954677954977E-03
               3.9196194087589512E-03
               5.0937989563610338E-03
               3.8834909860173618E-03
              -4.4632636023791451E-04
               3.4329958474605786E-03
              -2.3507473694090901E-05
              -6.2902174968960934E-04
               8.0685719745797924E-04
              -2.6827333321861502E-03
              -5.0003659750492745E-03
               8.1434400408189247E-03
              -4.7493303957651272E-04
               2.1394818901208962E-03
              -4.8719824412573411E-04
               2.2675323131137763E-03
               3.0900083041386238E-04
              -2.0159273585682487E-03
              -3.2001641026037624E-04
              -1.0576045650365960E-02
               8.2079301975604181E-03
              -5.8443320370846479E-04
               1.0998827334575691E-03
              -1.4688929908699901E-03
               1.3925292574386270E-02
               4.8444189163245575E-03
              -6.9651826733212767E-03
              -2.9570157682817424E-03
               4.2899945850979346E-03
               2.5777234326580241E-03
               2.4211663619611284E-03
               1.5537064592912077E-03
              -2.4591244086090945E-03
              -5.3344748508777646E-03
               4.9312924990172506E-03
               2.8745926605400055E-04
              -4.6644631729793605E-04
              -3.7984560537289696E-03
               4.6786928220951974E-03
               1.7166205138719835E-03
              -5.8305007223811833E-03
               1.0096017635446240E-03
              -2.3106030328320861E-03
               6.4380949295760213E-03
              -2.4005046069664410E-03
              -1.4919724196998474E-04
              -4.8381349179467221E-03
               1.1876187725193521E-02
              -1.0420663571950031E-03
               1.9474999747302883E-03
              -1.8311335101765629E-04
              -6.6338989550484354E-03
               4.0797663222974512E-03
               1.0251876603390823E-02
               9.2244626134556553E-03
               3.2083443043170743E-03
               3.8202293792237111E-03
               5.5642825776762318E-03
               4.5267672735494896E-03
              -7.5003195731881403E-03
               3.6481519724802531E-03
              -3.0995983129610627E-03
               1.0711175709065011E-02
              -5.5912187919947998E-03
               7.0089633091330004E-03
              -9.1095150514456212E-05
              -1.5489489942623811E-03
              -1.1542464545480626E-03
              -8.5534590185714385E-04
               6.1475137638317611E-03
               8.0970302289766830E-03
               6.6362170125837698E-04
              -1.1854658645361758E-02
               7.4955774454549965E-03
               2.3697254702153901E-03
              -5.6955869066913920E-03
              -8.8451940261213250E-04
              -9.4924604889336304E-04
               1.5684578789945994E-03
               4.1161323504905140E-03
              -2.8044797047298135E-03
               9.1687058308201211E-04
              -3.5144169613599936E-03
              -2.6754985291376232E-03
              -1.3255431848534160E-03
               2.4744380160295551E-03
              -4.0943400408092491E-04
              -2.9206293510902594E-03
              -2.5202463185105594E-03
               8.8943489771666183E-03
              -9.9176998472236717E-03
               2.8675065013550414E-03
               6.3931825742756625E-03
               1.7306713565644160E-03
              -1.5907028614870217E-03
               4.4724444650627278E-03
              -6.9908114627475794E-03
              -1.3672047050333597E-03
               2.9606756324763277E-03
              -1.8146333187523951E-04
              -6.0029315178731547E-04
               5.9500280051273512E-03
              -5.9005687178687836E-03
              -3.5535524877581071E-03
               9.7229435451865983E-04
              -7.8620615368832254E-03
               3.0233629677634288E-03
               1.2038877503034187E-02
              -5.9045516115673220E-03
               2.3967024925731946E-03
               4.8739709701079706E-03
               4.3210910324388034E-03
              -4.2705555931062886E-03
              -2.4205956677225771E-03
              -3.1164870725244420E-03
               3.5761004155593600E-03
              -5.1455453056237286E-04
              -1.9169320306806283E-03
               2.0911024242035352E-03
              -1.8739548449814374E-03
               2.7907070184044957E-03
              -3.0018495314827350E-03
               1.3731781282683912E-03
              -5.1911475629718750E-03
               9.4634441266303851E-04
               4.1411311714579409E-03
               1.9033929575033308E-03
               3.9359821731919592E-03
              -2.5268776726015373E-03
              -5.2183196212271287E-03
              -1.1466628085211479E-03
               2.1870361932633431E-03
               2.7752275574771117E-03
               7.4090123197425607E-04
               1.0330667927099051E-03
              -5.6069142339124581E-03
               5.5162816696802015E-03
               3.0846764967262623E-04
              -1.7389141558312045E-03
              -1.6764119382341428E-03
               5.2145014413045318E-03
              -3.3998743330151170E-03
              -6.1219173786079759E-03
               1.5177989371292484E-03
               7.9494245804127180E-03
              -9.0939125422094980E-04
              -2.3841435873248017E-03
              -4.6186954181452110E-04
               4.6677604864373522E-03
              -2.0205170565814482E-03
              -3.1445245550716012E-03
              -4.2890297395183795E-03
               7.9973190041829280E-04
              -2.0340102610219915E-04
              -2.9702672720724852E-03
               4.6591522245543644E-03
              -2.6470660439066270E-03
               3.5339186753974893E-03
              -3.8199011455665075E-04
               6.5796134819786816E-03
              -1.1157489733987485E-03
              -1.3572424711416728E-03
               8.9299153505936271E-03
              -4.8287196897701614E-04
              -8.3542175408084121E-04
               1.5006467673777328E-03
              -1.8014988754467632E-03
               4.1530004122683072E-04
              -2.9130494493468514E-03
              -3.5247486589941152E-03
               1.0437137676755715E-03
               4.1860089842741697E-04
              -5.5334757397797912E-04
               1.6918682177298981E-03
              -3.7509580867185685E-03
              -4.1045732051256849E-03
              -3.9281359902473721E-03
               2.2007987042157420E-03
              -5.5038817201890824E-03
               5.3237408458785551E-03
              -4.8400323616628995E-03
               2.5052828922770354E-03
               4.1330161819144013E-04
               1.2560711044019241E-03
              -9.2928048150641058E-04
              -2.1763327862767174E-03
               4.2032957978597905E-03
               1.8616747392173609E-03
               3.3700148047258478E-03
               1.7109079849764615E-03
              -6.9128724265058415E-03
              -3.1357389073371272E-03
              -1.0239102823856297E-03
              -2.0614828309623561E-03
               5.4782050160218868E-03
              -2.3307925367716427E-03
              -1.3911619894610213E-03
               2.3752245209369858E-03
               2.1448961251942108E-03
               9.1559956411338215E-03
              -9.1691284861418875E-03
              -3.6269476468525400E-03
               1.0525468557422541E-03
               9.5145941563324048E-04
              -4.6220993280551908E-03
              -1.4705416011548782E-03
              -2.8474250960386566E-04
              -1.7880387747250281E-03
               6.6079760578614576E-03
              -7.0149260012591754E-03
              -8.7495522118735398E-04
               2.4693921954397832E-04
               1.8131331470765334E-03
              -5.4437502256098383E-04
              -2.7643518894701789E-03
               2.6982445136547830E-03
              -1.8576240537864538E-04
               4.9063497034916330E-03
              -3.8344435151179946E-03
              -7.7185893620308667E-04
              -2.3357510572917031E-03
              -2.6349841612506291E-03
               3.1356527582499802E-03
              -4.2206935426661459E-04
              -5.9562567812201429E-05
              -2.4978247911479068E-03
              -1.9648822796342778E-03
               1.5619039547960863E-03
              -9.9338207606621681E-04
              -1.7870215764363624E-03
              -3.8819432305143539E-04
               8.9605996931727146E-04
               3.7722910665182033E-05
              -2.3889197551454086E-04
               8.8370990744805825E-03
               8.6064598810850698E-03
              -1.0480419582268504E-02
              -7.0158693286880881E-04
              -2.1931786920187483E-03
              -5.3260116235930620E-03
               1.9196863382352188E-03
              -1.6452513212688662E-03
               2.9636991870887622E-03
              -7.0030161718749682E-03
               6.7821435153987914E-03
               6.3920961740876322E-03
               1.2079516684733917E-03
              -1.2171904600564605E-03
              -1.5191199744805351E-03
              -2.3512645244189645E-03
               3.5640016860005708E-04
               4.4813602192820294E-03
              -7.0991380137210860E-04
               4.1168296007543549E-03
               1.3039210185056720E-03
               2.0708125442524834E-03
               1.1755758940844589E-04
              -2.3609115236284026E-03
              -4.3618355099505962E-03
               1.3241083590321042E-03
               3.6010705361848787E-03
               5.1257996930659704E-03
              -3.0493442401351512E-03
              -8.3019688276352553E-04
               2.2804717902287727E-01
               2.4339789417526007E-02
               1.8780696584897731E-03
         &END THERMOSTAT_ENERGY
         &RNG_INIT
Wiener process for Thermostat # 1        1 F T T  -1.5505429657892764E+00         661802595.0        2026459976.0        3136775027.0        3268219721.0        1056216878.0        3744216088.0             12345.0             12345.0             12345.0             12345.0             12345.0             12345.0             12345.0             12345.0             12345.0             12345.0             12345.0             12345.0
Wiener process for Thermostat # 2        1 F T T   1.5766939834860993E-01        2521559082.0        1979391111.0        3972826820.0        2839528192.0        3960449033.0        3051881342.0        3692455944.0        1366884236.0        2968912127.0         335948734.0        4161675175.0         475798818.0        3692455944.0        1366884236.0        2968912127.0         335948734.0        4161675175.0         475798818.0
Wiener process for Thermostat # 3        1 F T T  -1.6802103653762466E+00        2464096834.0        3454226368.0         668358963.0        3607867155.0        2139338144.0        1695442074.0        1015873554.0        1310354410.0        2249465273.0         994084013.0        2912484720.0        3876682925.0        1015873554.0        1310354410.0        2249465273.0         994084013.0        2912484720.0        3876682925.0
Wiener process for Thermostat # 4        1 F T T  -9.2120442907176847E-01        3007810664.0         626544053.0           5688727.0        2019501767.0        4050809287.0        2188826537.0        2338701263.0        1119171942.0        2570676563.0         317077452.0        3194180850.0         618832124.0        2338701263.0        1119171942.0        2570676563.0         317077452.0        3194180850.0         618832124.0
Wiener process for Thermostat # 5        1 F T T   1.9586792436148486E+00        3119398129.0        2238966874.0        1731687009.0        1729823850.0        3912388439.0         182524877.0        1597262096.0        3906379055.0        3312112953.0        1016013135.0        4099474108.0         275305423.0        1597262096.0        3906379055.0        3312112953.0        1016013135.0        4099474108.0         275305423.0
Wiener process for Thermostat # 6        1 F T T  -2.2012851380256623E-01         527820745.0        2447393615.0         338698828.0         653439858.0         976211817.0        3944196308.0          97147054.0        3131372450.0         829345164.0        3691032523.0        3006063034.0        4259826321.0          97147054.0        3131372450.0         829345164.0        3691032523.0        3006063034.0        4259826321.0
Wiener process for Thermostat # 7        1 F T T  -1.2191095662093037E-02         167278661.0        2992638024.0        1197931920.0         124710794.0         889033703.0        2194094787.0         796079799.0        2105258207.0         955365076.0        2923159030.0        4116632677.0        3067683584.0         796079799.0        2105258207.0         955365076.0        2923159030.0        4116632677.0        3067683584.0
Wiener process for Thermostat # 8        1 F T T  -2.6373530393371375E-01        2923147749.0        3809475671.0         892364519.0        3114385888.0        3523415917.0        3402922821.0        3281794178.0        2616230133.0        1457051261.0        2762791137.0        2480527362.0        2282316169.0        3281794178.0        2616230133.0        1457051261.0        2762791137.0        2480527362.0        2282316169.0
Wiener process for Thermostat # 9        1 F T T  -1.2388913960989989E+00         276694386.0        3384434371.0        2194062143.0        3864498526.0        2498625561.0        4174179731.0        3777646647.0        1837464056.0        4204654757.0         664239048.0        4190510072.0        2959195122.0        3777646647.0        1837464056.0        4204654757.0         664239048.0        4190510072.0        2959195122.0
Wiener process for Thermostat # 10       1 F T T  -6.9271884074884071E-01         298842605.0        4183294382.0        3769908432.0        1623977651.0        3452521187.0         349927101.0        4215590817.0        3862461878.0        1087200967.0        1544910132.0         936383720.0        1611370123.0        4215590817.0        3862461878.0        1087200967.0        1544910132.0         936383720.0        1611370123.0
Wiener process for Thermostat # 11       1 F T T  -3.9199517781213300E-01        1183014876.0        2469777470.0        2706060047.0        1374668043.0         490283634.0         131761905.0        1683636369.0         362165168.0         814316280.0         869382050.0         980203903.0        2062101717.0        1683636369.0         362165168.0         814316280.0         869382050.0         980203903.0        2062101717.0
Wiener process for Thermostat # 12       1 F T T   1.2248374085476998E+00         744312290.0        1838623065.0        1895433531.0        2930723882.0        3034111406.0        1223209339.0         272317999.0         166758548.0         310112982.0         201045826.0        1680231254.0         118290799.0         272317999.0         166758548.0         310112982.0         201045826.0        1680231254.0         118290799.0
Wiener process for Thermostat # 13       1 F T T   1.6053528300026945E-02         341235087.0         365462780.0         607175623.0        3292057964.0        1611524565.0         256574977.0        2245755202.0        1652682525.0        2865544364.0         721509566.0         209733568.0         592362218.0        2245755202.0        1652682525.0        2865544364.0         721509566.0         209733568.0         592362218.0