 # Version information for this restart file 
 # current date 2023-12-13 21:29:54.899
 # current working dir /scratch/work/courses/CHEM-GA-2671-2023fa/students/hz2750/comp-lab-class-2023/Week12/Runs/Proton
 # Program compiled at                              Sat Dec 12 18:27:15 EST 2020
 # Program compiled on                                         cs001.nyu.cluster
 # Program compiled for                                                nyu-intel
 # Source code revision number                                       git:8c64c6e
 &GLOBAL
   PRINT_LEVEL  LOW
   PROJECT_NAME proton_aimd_1ns_every0.5fs
   RUN_TYPE  MD
   WALLTIME 21600
 &END GLOBAL
 &MOTION
   &GEO_OPT
     OPTIMIZER  BFGS
     MAX_ITER  100
     MAX_DR     3.0000000000000001E-03
     &BFGS
     &END BFGS
   &END GEO_OPT
   &MD
     ENSEMBLE  NVT
     STEPS  2000
     TIMESTEP     4.9999999999999994E-01
     STEP_START_VAL  1500
     TIME_START_VAL     7.5000000000000762E+02
     ECONS_START_VAL    -1.1018977433487325E+03
     TEMPERATURE     3.0000000000000000E+02
     &THERMOSTAT
       TYPE  GLE
       REGION  MASSIVE
       &GLE
         NDIM  5
         A_SCALE     1.0000000000000000E+00
         A_LIST     1.8595758612559999E+02    2.7263853498399998E-01    1.1526100454610001E+01   -3.6414578262600003E+01 \
             2.3173375816020001E+02
         A_LIST    -2.7809524712060002E-01    8.5951591808710006E-05    7.2189048017650004E-01   -1.9844539343859999E-01 \
             4.2409257583420001E-01
         A_LIST    -1.4825808131210000E+01   -7.2189048017650004E-01    1.3590902121280000E+00    5.1498896280349999E+00 \
            -9.9949268450990001E+00
         A_LIST    -1.0372189126880000E+01    1.9844539343859999E-01   -5.1498896280349999E+00    2.6661910891169999E+01 \
             1.1507715495310000E+01
         A_LIST     2.1801346360420001E+02   -4.2409257583420001E-01    9.9949268450990001E+00   -1.1507715495310000E+01 \
             3.0958394565589998E+02
         &THERMOSTAT_ENERGY
              -1.1864363865916753E-04
              -3.2426111794520087E-03
               2.4535940485858281E-04
               5.9500362659241617E-03
              -1.2983941883774599E-02
               6.0407071969357804E-03
              -2.3300004623606346E-03
              -9.4695535193724100E-03
               9.0960471443968655E-03
               4.2210505866156819E-03
               7.1769716638073865E-03
              -4.0259033366728657E-03
               8.4218720509423983E-03
              -7.4591006333714609E-03
               6.4296344376608564E-03
               2.4797403399648152E-03
              -2.3683365943500279E-03
              -7.2684257464183796E-03
               3.4695675248829737E-03
              -4.3042591309734642E-03
               4.1700819862214317E-03
               5.5255580470788797E-03
              -6.4802201683352122E-03
              -8.0419452753144865E-03
               3.7921131277942922E-03
               4.4688936186983615E-03
              -2.9977459389019783E-03
              -3.7227876313979471E-04
               2.3577481956894085E-03
               7.3744049837376358E-03
              -3.2064217143079016E-03
              -4.3151990357350820E-03
              -2.9083286283508687E-03
               4.1965547945210140E-03
              -1.1870524703575663E-02
               1.2450050363459291E-02
               2.7656543165854542E-03
              -1.1553480724049044E-03
              -2.7015919980189412E-05
              -1.3093182317637012E-03
               4.2917765710160649E-03
               3.4780183990102470E-03
               3.2536419600087546E-03
              -1.0884592844385985E-03
              -9.8237444847661028E-03
              -1.3596523615510775E-03
               9.6690946485545794E-03
              -3.1811762391626185E-03
               1.4046347769509604E-02
               9.0988753714970824E-03
               1.8049021568810809E-02
              -4.4525423464246991E-03
               2.7203600236148148E-02
               1.4831919610849013E-02
              -5.9219215151040394E-03
               7.3339850773183153E-04
               1.7936607083376861E-03
               3.1798021178125889E-03
               3.1991390733949331E-03
               2.5570007236227917E-03
              -3.3877343025034727E-03
              -8.0443955149401038E-03
               1.2344299031595882E-02
              -2.0585757693773797E-04
               4.4363915841714287E-03
              -9.6006299225665805E-04
              -5.6124523235546314E-03
               7.0944007927832963E-03
               1.7226542993176185E-02
               1.8954533880542301E-03
              -7.6461663849113591E-03
              -5.6658869483890428E-03
              -2.0764644842403545E-03
               6.8527327651835435E-03
               8.1341521469682678E-04
              -1.3173356647598189E-02
               4.7718335111832308E-03
               1.4154524087070190E-02
               2.0154414942324898E-02
              -1.0401113821939582E-02
              -2.1000506826611160E-04
              -2.2468057505294803E-03
               8.1108079917908515E-04
               3.6483985304420726E-04
               1.9659715652007963E-03
               5.0673688615709995E-03
              -6.6098105729314955E-03
               4.7305835621622638E-04
               7.4595709727356583E-04
               2.9668731735105732E-03
               9.1858929197667508E-04
              -7.0423792528615777E-03
               5.1321537152354589E-03
              -8.4135584416263429E-03
              -8.1057114057948923E-03
               2.7711809091838834E-03
               3.8803550379869454E-03
               2.1934500617595831E-04
               1.0227228149517306E-02
               8.7861579540807772E-03
               2.6615950200403913E-03
              -1.6162644473952125E-03
               1.4016429645081054E-03
               8.4875599520920150E-03
              -5.3038177684406520E-03
               1.4282020193962457E-02
               1.4835412937644281E-02
               2.2803077168653783E-02
               3.9022627995709499E-03
              -2.1819523695264173E-03
               4.0263907247167158E-03
              -3.2942463785400611E-03
               9.8661875728043857E-03
               3.9137729595672324E-03
              -3.2391224505251733E-03
               2.9920242245789742E-03
              -1.5418589287035976E-02
               3.6712031546962394E-03
               3.3693775961149992E-03
               4.3098684363874588E-03
               6.0312346934159617E-03
              -3.3510590827274145E-04
              -3.9514123112616342E-03
               5.4036980252726201E-03
               3.2581031918664672E-03
              -6.0231719502252387E-03
               8.0352513013110510E-03
              -1.0566570025696820E-03
               1.2355602512000203E-03
               1.8766056175311871E-04
              -9.5365178176813545E-03
               1.8434043159332974E-03
              -4.5587912935211045E-03
               3.4734734287171780E-04
               8.7081902353305604E-04
              -1.8622525771479288E-03
              -3.2118927835389178E-03
              -7.0863138313402158E-03
               1.8617039501054994E-03
              -1.7237624236552170E-03
               7.4427667992552141E-03
               8.7009268204760806E-03
               7.5491073684821278E-03
              -8.2260060330066418E-03
              -2.3681394020341751E-03
              -4.4172769711302226E-03
               7.2269032107331026E-03
              -4.1605199270870388E-03
              -4.8365973027841517E-03
               3.2796193715084361E-03
              -1.2107459118811285E-02
               1.0611363657423370E-02
               3.2788361096080295E-03
              -1.8218298615268710E-03
               3.2413027847333891E-03
              -1.6384598237718815E-03
               7.6051650806715598E-04
               3.9444261064020972E-03
              -1.6392361960726267E-03
               3.0121005190473227E-03
               2.0936412011198858E-03
              -3.8126210066405501E-03
              -2.6818552792852602E-03
               2.6006671175636637E-03
               4.7062302136380192E-03
               1.0690777758724169E-02
              -4.1208594477243452E-04
              -1.2042258208452639E-02
              -1.0917506788912136E-02
               8.5202730060968037E-03
               1.6316848624584935E-03
               4.7074175990633790E-03
               8.6637656966955263E-03
               2.3188195952473195E-03
              -2.0966358533754829E-02
               1.0179728609992899E-02
               2.5174668124476529E-03
               2.6196055085693687E-01
               6.4222191097403888E-02
               1.4271002418177371E-02
              -1.6412717767809682E-03
               1.1521078998483285E-03
               5.4272460682300338E-03
              -2.5041816395900578E-02
               1.9296764406069637E-02
              -1.7345525216463475E-03
              -1.5884022296991890E-03
              -2.6347958816151950E-03
              -5.1038765681339620E-03
               3.2970318238107334E-04
               2.1608648670946324E-03
              -2.0196036659992822E-03
              -1.0512569732061506E-03
               1.2459774574472646E-02
               7.0015783602606812E-03
              -5.1807027342053533E-03
              -1.4021937483323234E-02
               4.3607305130958325E-03
              -2.6910007240669464E-03
               4.3214768568196880E-04
               1.4783196211562233E-03
              -6.4031513856884206E-03
               1.0908129471684083E-02
              -3.2759254984579176E-05
              -5.0055264601402832E-03
               2.6949467023418983E-03
              -3.7278588063724078E-03
              -3.2462136294111746E-03
               2.4335885366258544E-03
               1.9774052104658850E-03
               3.4061763580277593E-03
              -4.7086017363852303E-03
               1.3432690252457646E-02
              -8.5358981635953752E-03
               6.8147867579058507E-03
               1.2193704925004233E-03
              -5.3684687974318163E-03
               1.3568852244340596E-02
              -5.1819968903283964E-03
               2.2098062000129263E-03
               1.2565211395066668E-02
               1.4041467245763007E-02
               1.1591296016856604E-02
              -8.5281525655869495E-03
              -4.2177077095867151E-03
               4.7731217664088383E-03
              -5.2101857414897353E-04
               2.9294706397245884E-03
               4.4181537654268245E-03
               1.0966507096537169E-02
              -3.1411925903955407E-03
               5.6833092663361572E-03
               8.2743449620921485E-03
              -5.7300058557377487E-03
               4.1081857380880667E-03
              -3.2152463642272909E-03
              -1.9606883714954376E-03
               1.4287271474296660E-03
               1.2566120136478674E-02
               5.7178125571062449E-03
              -1.6357175246044752E-03
              -6.5240498651843247E-04
              -7.0986195576203453E-03
              -2.4246777146018851E-03
              -2.9891643524493656E-03
               4.0632820072157971E-03
               8.8881727926927862E-03
              -7.4842369148751949E-04
              -4.0556959067634436E-03
              -1.4633343536750185E-03
              -4.5824925637809105E-04
              -4.8881921886305998E-04
              -6.7259635596778836E-03
              -1.9950152368166676E-03
               1.5505836856798242E-03
              -1.0452259559800407E-03
               8.8008421786134952E-03
              -6.6871913026202347E-03
               1.2053400869087150E-02
              -1.6606836811283245E-02
               1.7453026218100694E-02
               2.0626750352686248E-03
               6.2093658928306164E-03
               5.6754871211810946E-03
              -4.9678017469306588E-03
              -3.8587233438688155E-03
               9.9813768379773075E-03
               4.4927092774543140E-02
               6.2803949067970054E-03
               3.9842337991154927E-02
              -6.2917385699302747E-03
              -4.3735081398951822E-03
               4.8735706719543401E-03
               1.1140925172983087E-02
              -2.5895069598633460E-03
               2.7410285259665444E-04
              -2.6521774946786793E-02
               1.3127179042359579E-02
               4.7327421639600346E-03
               5.7514828339825710E-03
              -3.2709390986478230E-03
               5.7904588681248325E-03
               1.1332625374710559E-04
              -7.2056166895953684E-04
              -3.9228662094710400E-03
               8.6296055248466699E-03
              -5.0916941831191179E-03
              -2.8693118389418637E-03
              -3.2743140660792414E-03
              -4.6092338120062252E-04
              -1.8837358799679439E-03
               1.5464346606599720E-02
              -1.6560306795560118E-02
               5.2067190357775739E-03
              -2.1529599787773000E-06
               1.7010623969377216E-04
              -4.8573217773593882E-03
               5.7917306072664885E-04
              -1.7463878474516836E-04
              -5.8523663450890809E-03
              -8.2041029857392994E-04
               1.3313858006163077E-02
               5.5050678608898514E-03
              -1.7030527676616843E-03
               8.6928282627556485E-03
              -1.2358952995576138E-02
               2.8177682215291288E-04
               2.1672040245453664E-03
              -4.4696420118121444E-03
               7.2243320746547520E-03
               8.8618468436159185E-04
              -8.5038723213725596E-03
               6.6099780820734824E-03
               4.1814404899857592E-03
               2.9073782761024122E-03
               2.7959409872653179E-03
              -1.3045964860352449E-03
               5.4053864086195495E-03
              -6.0842920817152082E-03
              -1.7368468803084311E-04
               9.9919561909825212E-03
              -5.6364543071515030E-03
              -7.5103901141131500E-03
               1.1311236654567656E-02
              -4.5281252114455434E-03
               2.7638377284941533E-03
               2.5417116531626684E-03
              -2.4903215193264315E-03
              -3.2589086203275606E-03
               3.3052591166387638E-03
              -1.9284394296925390E-03
              -4.1545068338149941E-03
               1.3426821474175250E-02
              -3.4271618514748661E-03
               1.0293004957344905E-03
              -2.4914417319726245E-03
               1.5916124019186444E-02
               9.5233304706961314E-03
              -1.6470610380241977E-02
               1.3695098780631744E-02
               6.5273744588838448E-03
              -9.7543509240149084E-04
               1.2905208187284078E-03
              -3.0812835490411118E-03
               3.6698190882935276E-04
              -3.9960721164421968E-03
              -5.0491878402550436E-03
              -3.5774454303113667E-03
              -2.4420042369132379E-03
               1.9457957598569299E-03
               2.3324072857189831E-03
               1.6462183765822615E-03
              -7.5996755195934804E-03
               1.3047838622678571E-03
              -4.4886839574930070E-03
               1.7907881493996903E-02
              -8.8914676829281148E-04
              -7.6688488676374946E-03
              -4.0849872014321314E-03
               8.7367106759934400E-03
              -2.0238875213113468E-03
               1.8300451843777953E-03
              -6.5190676981759909E-03
              -7.3737965249146397E-03
               3.9165006166851594E-03
               1.5514441595717157E-02
               4.0000364783303217E-03
               8.7826037552406579E-04
               1.4089360453341786E-02
               5.2549085868104960E-03
               6.1388757227260754E-03
              -8.7527719281795813E-03
               7.5382247003127336E-03
              -1.4164470297954720E-03
               1.0574820942663500E-02
              -1.2479226913471603E-02
               1.0661419079521813E-02
              -8.8608416405219839E-03
              -1.3334728650900435E-03
               1.0693328198184994E-03
               4.9463851506563114E-03
               3.5834223408292704E-03
               1.5893652090826313E-02
              -1.7253891115557706E-03
              -1.3545982684997269E-02
               1.3801371023479961E-02
              -6.9444771093926088E-03
              -8.4516994984747199E-03
              -2.7974476698698261E-03
              -1.8145178665226162E-04
              -1.2142832057219773E-02
               1.7503168810189040E-02
               7.2472378745844007E-04
              -4.9918172483139449E-03
               2.0050347405682709E-03
               6.1472213715578093E-04
              -6.2607545527848234E-03
              -5.1147044458784039E-03
               2.8500669028462184E-03
              -9.0588966284782108E-03
               2.1090083350908725E-03
               5.4948739955864873E-03
              -1.2824521055511380E-02
               8.4499160518867831E-03
               8.7551239107202077E-03
               1.2827638137162820E-03
               2.2621076912989102E-03
               5.5970090954786857E-03
              -9.9550191331389364E-03
              -4.9165081778016302E-03
               4.8070827314623497E-03
               1.9282175375055902E-03
              -8.0438090653499831E-03
               8.0772715648267795E-03
              -1.3569069903505507E-03
              -5.9809787575867783E-04
               4.5927604876656314E-03
              -8.6042770997956774E-03
              -4.5535478651120512E-03
               8.4801808081588180E-03
              -1.2624312018236430E-02
              -2.6457802718421446E-03
               7.0575715870407835E-03
               1.5291759249015696E-03
              -5.4311541021629989E-04
               3.1456617206752128E-03
              -5.4777722824817634E-03
               2.6564107714388135E-03
              -5.4168668752656675E-03
              -5.8685048389882019E-04
               9.8518155694008510E-03
              -6.3146177037557011E-03
               1.5338489786306832E-03
              -2.4078993381435880E-03
               2.6775321693571068E-04
              -8.7778487213194759E-03
              -6.4760250408755771E-03
               1.5520546488203779E-02
               1.4508964413245980E-02
               5.1192018470879036E-03
              -1.2710394258197606E-02
              -1.1330830812980997E-02
              -2.6999135223771120E-03
               6.1132305248629984E-03
              -2.4858546991839005E-03
              -9.2358734493349724E-03
               6.2493961210347577E-03
               5.7760653077180415E-03
               9.1816851562878839E-03
               9.6778506588973147E-04
              -8.6582796041555471E-04
              -5.7120443850945321E-03
               6.8299881941594441E-03
              -3.9846358134241503E-03
              -2.4770376632642834E-03
              -7.5322439865987533E-03
               1.5807034985851676E-02
              -1.2934332154680502E-03
              -5.3733530742240340E-03
               2.7516320775685879E-04
               3.9973427093685952E-03
              -1.7221958129588423E-03
              -1.4223856635406057E-03
               3.4162410199940468E-03
               7.4029802462361096E-03
               6.5637509351695357E-03
              -1.4050604615534146E-02
               2.7717511116872552E-03
              -1.2743554717628536E-03
               3.0150008474299447E-03
               3.2115131360456583E-05
               1.3475824240913346E-02
              -7.1230458164322809E-03
              -5.4820584321570000E-03
               1.2347506631000737E-03
               9.1210963160876755E-03
              -2.1267430937922044E-03
               3.5828526322388273E-03
              -1.2000224708308921E-03
               8.8235969700071950E-04
              -8.4098520082267151E-03
               2.6400272043508363E-03
               3.4949948292230491E-03
               7.0304649851029412E-03
              -5.6818901122699843E-03
              -4.4198442684200410E-04
              -2.1012721828319336E-03
               1.0894044952522506E-04
              -5.4768081691558192E-03
               5.1292928694782530E-03
              -1.5132490930132421E-02
               1.4925487990684895E-02
               1.2465053049527863E-03
               7.2575532640254108E-03
              -6.6305376537755083E-03
               5.4806530606670550E-03
               9.0008331340277030E-04
               1.2766655125784725E-03
               6.1824049378803895E-03
               4.3152066726763532E-03
               9.9406139692077289E-03
              -4.0901943105430046E-03
              -1.8450258556871834E-02
              -5.7175510466248641E-03
               7.0488428204062347E-03
              -2.1716496845761032E-03
               5.6183457765319597E-03
              -5.1309834307700980E-03
               8.3842055497531289E-03
              -8.4566690543430752E-04
              -7.2871969021676072E-03
               1.5724354133330915E-02
              -1.3493158615346086E-02
               3.8767243515671498E-03
               6.0747205349303028E-03
              -4.4624825779177400E-03
              -1.3892492138734685E-02
               6.2610422406290398E-03
              -2.1195161611696950E-04
              -4.8837192734295740E-03
               1.0253255888329042E-02
              -8.6554762881581575E-03
              -1.3531291464494626E-02
               1.0217631182342422E-02
               3.5944565753755885E-03
              -6.8653184874381216E-03
               1.4976440526104726E-03
              -6.9313382371763571E-03
               2.1257744240870975E-03
               4.8721992925519868E-03
              -1.1541721161224715E-02
               1.6851671813632161E-03
              -5.1980220948091172E-03
               9.6574514194435271E-04
              -1.9618781293275853E-03
               1.6945795504377741E-02
              -4.9445291824862505E-03
              -2.6547575394564706E-03
              -1.5479764235256028E-02
               5.2011365141501256E-03
              -2.7271028126434715E-03
              -1.6025533850782445E-03
              -7.0731772963024972E-03
               3.8561669526021389E-03
              -5.2373984938116030E-04
               1.4196702627689853E-02
               9.3533820496355981E-03
               9.6515199586463350E-03
              -1.2685354434988871E-02
              -1.9220373574217239E-03
               1.6587619337504692E-03
              -8.6356319378258686E-03
              -4.2236356355359137E-03
               8.3548586970768456E-03
               8.5534763289081533E-03
              -8.0585877193855224E-03
               5.6518627929648350E-03
               3.8965858106241712E-03
               8.3891121726192217E-03
               2.4033624100858134E-03
               1.9705395193206545E-03
              -1.1518885752600646E-02
               5.2070398153190745E-03
              -4.1546612700769881E-04
              -4.5672108034744991E-03
               5.0789421743360850E-03
               2.8917693283669488E-03
               2.8868295422983452E-03
               5.9920233590302838E-03
              -2.7565825835276837E-03
              -5.0563607900393336E-03
              -1.9937323691413472E-05
               5.0944825871989908E-03
              -1.6145970913899294E-04
              -2.3832106176741056E-03
              -1.0749743112140394E-03
               2.4255896424503254E-01
               1.8768239594165622E-02
              -6.9133088446741509E-03
         &END THERMOSTAT_ENERGY
         &RNG_INIT
Wiener process for Thermostat # 1        1 F T T   1.0570193072987602E-01        2554248455.0        3733268398.0        2096963647.0         915983833.0        1292997779.0         989563289.0             12345.0             12345.0             12345.0             12345.0             12345.0             12345.0             12345.0             12345.0             12345.0             12345.0             12345.0             12345.0
Wiener process for Thermostat # 2        1 F T T  -5.0729818522276993E-01         187792199.0        1332764939.0        1272087322.0         282682701.0         988697858.0        4086000388.0        3692455944.0        1366884236.0        2968912127.0         335948734.0        4161675175.0         475798818.0        3692455944.0        1366884236.0        2968912127.0         335948734.0        4161675175.0         475798818.0
Wiener process for Thermostat # 3        1 F T T   8.9774137220556466E-02        3755061031.0        1753083868.0        1351179932.0         343881147.0        3312142877.0        1244557929.0        1015873554.0        1310354410.0        2249465273.0         994084013.0        2912484720.0        3876682925.0        1015873554.0        1310354410.0        2249465273.0         994084013.0        2912484720.0        3876682925.0
Wiener process for Thermostat # 4        1 F T T   2.1447125495896904E-01        2430503636.0         902227617.0        3039217662.0         205693714.0        2375800914.0        4220709598.0        2338701263.0        1119171942.0        2570676563.0         317077452.0        3194180850.0         618832124.0        2338701263.0        1119171942.0        2570676563.0         317077452.0        3194180850.0         618832124.0
Wiener process for Thermostat # 5        1 F T T  -7.4974817695318574E-01        3949927612.0        4293465109.0         224208328.0         677588237.0        2173092809.0        2514687022.0        1597262096.0        3906379055.0        3312112953.0        1016013135.0        4099474108.0         275305423.0        1597262096.0        3906379055.0        3312112953.0        1016013135.0        4099474108.0         275305423.0
Wiener process for Thermostat # 6        1 F T T  -2.3195632299180402E+00        4147399821.0         968438491.0         174961265.0         382156541.0        3672303660.0        2385050302.0          97147054.0        3131372450.0         829345164.0        3691032523.0        3006063034.0        4259826321.0          97147054.0        3131372450.0         829345164.0        3691032523.0        3006063034.0        4259826321.0
Wiener process for Thermostat # 7        1 F T T  -8.3038096976097500E-03        3725962017.0        3124905816.0        1692649901.0        3685368087.0         990134651.0        3321809881.0         796079799.0        2105258207.0         955365076.0        2923159030.0        4116632677.0        3067683584.0         796079799.0        2105258207.0         955365076.0        2923159030.0        4116632677.0        3067683584.0
Wiener process for Thermostat # 8        1 F T T   7.2955713326517235E-01        1426374835.0        1022225665.0        3431852557.0        2945126969.0        1347790872.0        2047858768.0        3281794178.0        2616230133.0        1457051261.0        2762791137.0        2480527362.0        2282316169.0        3281794178.0        2616230133.0        1457051261.0        2762791137.0        2480527362.0        2282316169.0
Wiener process for Thermostat # 9        1 F T T  -8.3876742673612970E-01        3633457436.0         863053678.0         665967915.0         928783000.0        4027924725.0        3556250224.0        3777646647.0        1837464056.0        4204654757.0         664239048.0        4190510072.0        2959195122.0        3777646647.0        1837464056.0        4204654757.0         664239048.0        4190510072.0        2959195122.0
Wiener process for Thermostat # 10       1 F T T  -6.7138423863751628E-01        3282585865.0         909372753.0         488063086.0        2442536289.0         174422437.0         477575080.0        4215590817.0        3862461878.0        1087200967.0        1544910132.0         936383720.0        1611370123.0        4215590817.0        3862461878.0        1087200967.0        1544910132.0         936383720.0        1611370123.0
Wiener process for Thermostat # 11       1 F T T  -7.2169956836733329E-02        3039538231.0          25912629.0        1608189467.0        1823124278.0        2331127605.0        2449500504.0        1683636369.0         362165168.0         814316280.0         869382050.0         980203903.0        2062101717.0        1683636369.0         362165168.0         814316280.0         869382050.0         980203903.0        2062101717.0
Wiener process for Thermostat # 12       1 F T T  -6.7722400494670465E-01        2762226669.0        4262778377.0        2250707948.0        3120407528.0        3704866228.0        1185520965.0         272317999.0         166758548.0         310112982.0         201045826.0        1680231254.0         118290799.0         272317999.0         166758548.0         310112982.0         201045826.0        1680231254.0         118290799.0
Wiener process for Thermostat # 13       1 F T T  -7.3817531449270457E-01        3689403510.0         367299738.0        3636386471.0        1925893934.0        3355800516.0        3520562622.0        2245755202.0        1652682525.0        2865544364.0         721509566.0         209733568.0         592362218.0        2245755202.0        1652682525.0        2865544364.0         721509566.0         209733568.0         592362218.0