 # Version information for this restart file 
 # current date 2023-12-13 22:34:36.837
 # current working dir /scratch/work/courses/CHEM-GA-2671-2023fa/students/hz2750/comp-lab-class-2023/Week12/Runs/Proton
 # Program compiled at                              Sat Dec 12 18:27:15 EST 2020
 # Program compiled on                                         cs001.nyu.cluster
 # Program compiled for                                                nyu-intel
 # Source code revision number                                       git:8c64c6e
 &GLOBAL
   PRINT_LEVEL  LOW
   PROJECT_NAME proton_aimd_1ns_every0.5fs
   RUN_TYPE  MD
   WALLTIME 21600
 &END GLOBAL
 &MOTION
   &GEO_OPT
     OPTIMIZER  BFGS
     MAX_ITER  100
     MAX_DR     3.0000000000000001E-03
     &BFGS
     &END BFGS
   &END GEO_OPT
   &MD
     ENSEMBLE  NVT
     STEPS  2000
     TIMESTEP     4.9999999999999994E-01
     STEP_START_VAL  1999
     TIME_START_VAL     9.9949999999998238E+02
     ECONS_START_VAL    -1.1018977433487325E+03
     TEMPERATURE     3.0000000000000000E+02
     &THERMOSTAT
       TYPE  GLE
       REGION  MASSIVE
       &GLE
         NDIM  5
         A_SCALE     1.0000000000000000E+00
         A_LIST     1.8595758612559999E+02    2.7263853498399998E-01    1.1526100454610001E+01   -3.6414578262600003E+01 \
             2.3173375816020001E+02
         A_LIST    -2.7809524712060002E-01    8.5951591808710006E-05    7.2189048017650004E-01   -1.9844539343859999E-01 \
             4.2409257583420001E-01
         A_LIST    -1.4825808131210000E+01   -7.2189048017650004E-01    1.3590902121280000E+00    5.1498896280349999E+00 \
            -9.9949268450990001E+00
         A_LIST    -1.0372189126880000E+01    1.9844539343859999E-01   -5.1498896280349999E+00    2.6661910891169999E+01 \
             1.1507715495310000E+01
         A_LIST     2.1801346360420001E+02   -4.2409257583420001E-01    9.9949268450990001E+00   -1.1507715495310000E+01 \
             3.0958394565589998E+02
         &THERMOSTAT_ENERGY
               1.3278192011200859E-04
              -3.4829448960956629E-03
               8.7868050720281497E-05
               4.6191142821566129E-03
              -1.1620451715834786E-02
               6.6266685729939054E-03
              -5.6787531033332646E-03
              -6.6800761596192589E-03
               1.1454003853882568E-02
               2.8829951530991559E-03
               9.2382259752410573E-03
              -2.9175819669373355E-04
               3.7108141770179127E-03
              -1.1948524577456335E-02
               2.0548494272277372E-03
               2.5387260906985411E-04
              -5.1179309756506546E-03
               1.0251184440237817E-03
               2.8040537143432403E-03
              -4.2243422595417404E-03
               1.3128887709948501E-03
               1.3024395021681821E-02
              -1.0091490268117726E-02
              -1.3172445226412628E-02
               9.6692439624154816E-03
               6.9655483291851620E-03
              -4.6972947514117857E-04
               2.8425622916643080E-03
              -5.9132923912770714E-04
               8.3412656614510160E-03
              -2.6911345639996759E-04
              -7.1680119159070275E-03
              -4.4346241514667921E-03
              -1.0812916010679589E-03
              -6.8672269679059877E-03
               1.0229535638794474E-02
               1.9738691677611362E-03
              -2.3080438655316512E-03
              -1.2045104224223770E-03
              -4.0241106898342809E-03
               1.2111163700621080E-02
              -6.3430968083372915E-03
               2.7135601892576381E-03
               5.9221339739120773E-03
              -6.7061485557408226E-03
               7.7123061776427954E-04
               6.3607813830716155E-03
              -4.5550314947838725E-04
               1.3262547535843576E-02
               1.0249174891091898E-02
               2.0818821851550092E-02
               6.6183677797731523E-04
               2.2688551608491217E-02
               1.8201457390595116E-02
              -9.2958652770574295E-03
              -7.6253007508579238E-04
              -1.4374144574311419E-03
               1.6833580191545118E-03
               4.0173549477506617E-03
               4.5041301533772747E-03
              -1.5104293507148972E-03
              -2.3112202178347512E-03
               1.0740071810613179E-02
              -3.0697050348230562E-03
               5.6553843362571335E-03
              -3.4191231499649667E-03
              -7.1447421620781130E-03
               1.0030323087000175E-02
               1.9808092157972763E-02
               6.7905939188572361E-04
              -7.2393525163016595E-03
              -7.4674351503451067E-03
              -9.4875280384340837E-04
               3.9706300383131419E-03
              -2.8206789041250574E-03
              -2.1251808944810210E-02
              -1.8884562432578576E-03
               2.7326286817703986E-02
               1.9026799351212497E-02
              -7.0861351215049696E-03
              -7.9607911756688938E-04
              -3.1421135202590058E-03
               2.8775620836941902E-03
              -2.1087128490741725E-03
              -2.9657172968732205E-03
               1.3963407697304184E-02
              -5.9222291576889125E-03
              -1.2234107619056932E-02
               7.2171704634145309E-03
               3.8382455416858569E-03
              -4.5696793724642132E-03
              -7.6974914949788920E-03
               2.9947778097123628E-03
              -7.2458552121700635E-03
              -6.3922597027097940E-03
              -5.6739260209095303E-03
               8.3173758755533452E-03
              -5.3434262475169562E-04
               1.5581922693457479E-02
               7.8065030865579936E-03
               6.3699940368083944E-03
              -3.6057072462513120E-03
               1.4501863641663121E-03
               7.2838225074191958E-03
              -1.0210042294049393E-02
               7.4106803447218832E-03
               1.8856421019700965E-02
               2.7820137068567560E-02
               4.3156081357476027E-03
              -6.5406171453634560E-03
               2.1573967303899827E-03
               8.2419489078492010E-03
               7.5678351779863888E-03
               2.5027856363915133E-03
              -5.0356625446282164E-03
               8.3249398566212051E-04
              -1.3216722610862730E-02
               1.4149101635590627E-03
               4.2578953889908953E-03
               5.6857542193520013E-03
               1.0200077100531238E-03
               4.4523415009535281E-03
              -3.7621955371960245E-03
               4.4773817703275964E-04
               2.1335081443597790E-03
               1.5885193539774090E-04
               1.0877774216751431E-02
               7.8463964887603586E-04
              -3.1781248673758136E-03
               8.5424208037869643E-03
              -1.1600187354303021E-02
               3.0737610614212042E-04
              -5.7593164478194530E-03
               1.8830553158149854E-05
              -1.3017282174197049E-03
              -7.2761389873422008E-04
               1.0731514479462093E-04
              -1.0483702427722289E-02
               3.0905025047227815E-03
              -9.4174877194411915E-04
              -1.2113445326066056E-03
               8.0852484776242368E-03
               1.1148018432606812E-02
              -7.6578560468646755E-03
              -8.3108151191471082E-04
              -3.1273394160718686E-03
               5.0103408918158818E-03
               1.3135925197703209E-03
              -7.3600372848019961E-03
               5.8994046721984068E-03
              -1.5015642384168162E-02
               1.3338351590992954E-02
               1.6140279145003874E-03
              -1.1542453156572659E-04
               3.6044746100877094E-06
              -5.3331723534965061E-03
               5.1874740888104877E-04
               7.3439542900980807E-03
               4.0791234564739806E-03
               2.9474136114286068E-03
              -2.3633497295939701E-03
               1.2454095733763392E-02
              -1.6403038573036812E-03
               3.6280489529583039E-03
               7.8381071508120143E-03
               1.6940363185574025E-02
               3.3632832726398364E-03
              -2.8758321996441398E-02
              -5.4750558946476896E-03
               3.8827121094087251E-03
               6.3779047129979287E-04
               4.7854464179926341E-03
               1.3302802201147709E-02
               1.6034069811004807E-03
              -1.7435543675719856E-02
               1.7375927724023175E-05
               9.0262867865554559E-03
               2.6096338731726970E-01
               6.5732879261537411E-02
               8.9745610088236560E-03
               4.0832839011674079E-04
              -1.1173004386538232E-03
               4.7155793022213999E-03
              -2.4916272116139331E-02
               2.3861442475378820E-02
              -1.2302975418905012E-03
              -7.1248399946515287E-04
              -8.1504215977480626E-03
              -7.2013140762863942E-03
              -1.9609662474764779E-03
               5.2326780950854310E-03
              -1.4505841747221107E-03
              -3.1120214351745244E-03
               8.7027070852873298E-03
               1.2183017965256112E-02
              -4.1981710603711990E-03
              -1.8827463593361935E-02
               5.4987802560417980E-03
              -5.6098365038057523E-03
              -5.9045034633308175E-04
               2.0615625088164927E-03
              -3.2591222674617820E-03
               1.4952469754074391E-02
              -6.0257333534358810E-04
              -8.4950868227249565E-03
               2.4887251007025906E-03
              -9.2640954871930610E-05
              -5.8266351287378157E-03
               1.9147850154585132E-04
               2.6833920211578738E-03
               5.1479075036266388E-03
              -3.7099670398382484E-03
               1.3679278556058848E-02
              -4.9957523819604555E-03
               9.3313746526222877E-03
              -5.5461856549513166E-03
              -7.0872877341601991E-03
               1.3544580051592956E-02
              -2.7875812822642891E-03
              -1.5952153970048001E-04
               4.6902431801958896E-03
               1.4412255597650008E-02
               5.1466832429543970E-03
               7.4837281665848755E-04
              -5.7301779622700099E-04
               3.7226683092144051E-03
               1.4290532965921100E-03
               3.3625645818413175E-03
               4.7430024762725037E-03
               4.7026400568401438E-03
              -2.1815789504257914E-03
               7.6271167247962798E-04
               1.4614052746495637E-02
              -4.1751123004108263E-03
               3.4274460474753936E-03
               7.3957517852407152E-05
              -2.9895260604211899E-03
               1.8879856505333873E-04
               1.2346245016089108E-02
               9.7549529207342708E-03
              -2.7271829044081541E-03
              -4.0760958027249326E-03
              -5.4941561333604816E-03
              -3.4204990314321464E-03
              -1.3054682598435908E-04
               7.4148364597040745E-03
               1.1767830873007631E-02
               4.7769985890391202E-04
              -3.2115254074269015E-03
              -2.1613937185850461E-04
              -7.4526614605269102E-03
              -7.0790101543852929E-03
              -7.8736422160084803E-03
              -1.6877651628736355E-03
               1.1907571319753484E-03
               3.0830800357802917E-03
               8.9817048624395851E-03
              -7.2454105813141165E-03
               1.8991837230191377E-02
              -2.0166812289012324E-02
               1.7767847676286409E-02
               8.6388028944710798E-03
               3.3922939831732635E-03
               2.0487556372665826E-03
              -3.5314324041456546E-03
              -7.8541063835579766E-03
               1.9016446262460143E-02
               4.8301002262127142E-02
               1.0363129756819260E-03
               3.6675801620693532E-02
              -3.4713160090783747E-03
              -4.1795529841098756E-03
              -1.6687511169229032E-03
               1.2264591706183946E-02
              -4.4061121379942707E-03
              -4.8133019222069604E-04
              -2.7019132280662668E-02
               2.0585247359499043E-02
              -3.4208388634309056E-03
               5.2203947106067815E-03
              -3.5660924235408164E-03
               6.7925819991354738E-03
              -2.2040459121184172E-03
              -1.8100395548682614E-03
              -4.1191178272806236E-03
               1.0012812445406234E-02
              -4.1221471286611465E-03
              -2.6254475159182850E-03
              -3.5261134793336426E-03
              -2.2727608644919101E-04
              -3.2292826354718375E-03
               1.4957065345368168E-02
              -1.5012866526045122E-02
               2.8963181218100106E-03
              -2.7755141704695623E-04
               6.7204393034788808E-03
              -7.9791986916216591E-03
               1.7972426003052253E-04
               2.6406731639080690E-03
              -3.5242662753054523E-03
               4.4342784843339118E-04
               1.2096718581583593E-02
               6.3623478514040340E-03
              -1.1850472773798479E-03
               6.4024614630077527E-03
              -1.4102781733467419E-02
               1.8314368263632574E-03
               8.7164975970787425E-03
              -9.3027741293462349E-03
               7.3350562540482169E-03
               4.5948671629138654E-03
              -1.4156136697613710E-02
              -2.9160893616531442E-03
               1.2971888808309816E-02
               3.9351589775169470E-03
               4.3129110381692048E-03
              -2.4029666999411141E-03
               5.1344793459737383E-03
              -1.8050869283292527E-03
              -1.2765306432260337E-03
               9.1562740984445536E-03
              -1.4294722634868010E-02
              -5.4938361100395324E-03
               1.2081731964556256E-02
              -6.2029366627428268E-03
               2.7992236960661123E-03
               1.9856159049041460E-03
               3.9897826750775632E-03
              -1.7729761996877645E-03
               8.1017300851820330E-03
               3.7651464102321187E-03
              -6.9565190835426324E-03
               6.0964131227512642E-03
              -4.0505101739190764E-03
              -4.6715617570858661E-04
               7.6104818964932452E-04
               1.3823740022053124E-02
               8.8061092138190279E-03
              -1.8374420050693663E-02
               1.4961753588551004E-02
               3.2593189340158627E-03
               3.8956371396357443E-03
               4.9252216804651638E-04
              -5.1112978289655775E-03
              -1.9899969325865908E-03
               3.5933924729540184E-04
              -4.3573641390310860E-03
              -4.2929226271811380E-03
              -8.8144909964537840E-04
               2.3240228947880369E-03
               4.6527236427089200E-03
               3.0485659884764552E-03
              -8.3438750658047442E-03
               2.1297185809371587E-03
              -1.1199185448025555E-02
               1.5705937042014038E-02
               4.9941998393062681E-03
              -1.1555576171669947E-02
              -1.2341587110394923E-02
               1.8504436584079485E-02
              -1.8308084947618332E-03
               3.4970135430901512E-03
              -4.6268661893227323E-03
              -4.2767837232443821E-03
               2.8913129296902610E-03
               1.1447660678347130E-02
               7.8771913494764950E-03
               3.6580288160940064E-04
               1.1337408265002543E-02
               4.5646645835516744E-03
               5.3709492961619759E-03
              -1.0296037109063102E-02
               1.3187576877617685E-02
              -1.7710940228488803E-03
               8.5771724158301248E-03
              -9.2138885024376331E-03
               1.0256566461535676E-02
              -1.4194601469603118E-02
              -1.6849159345709362E-03
               2.1890733491669147E-03
               9.4834691205868613E-03
               7.3969541186371772E-03
               1.8193453774268512E-02
              -9.8374033459448472E-03
              -1.6265159327547882E-02
               1.3260753376338306E-02
              -7.6120360750133679E-03
              -4.0087399356522101E-03
              -3.1649058664060970E-03
              -1.5947741564755974E-03
              -9.3476809034903959E-03
               1.3387932965158590E-02
               4.7422989020401941E-03
              -1.3843205958430619E-02
               7.9764738091746799E-03
              -4.3636877227708540E-04
              -8.2888987522697008E-03
              -3.2254890808106648E-03
               4.1713221658675080E-03
              -2.2538091720160087E-02
               6.1295413253218962E-04
               1.1105818838238673E-02
              -5.7433947665069219E-03
               5.4827268245880145E-03
               1.4297587156959429E-02
              -4.4202798992757546E-03
               2.7355256553220973E-03
               3.9671868785200381E-03
              -1.0063637710835105E-02
              -1.2399017740334676E-03
               7.6397569712371516E-03
               9.2153147284097809E-03
              -6.1296090111841849E-03
               7.9643579936117988E-03
              -1.8197994123192358E-03
              -3.5627189496517100E-04
               3.7719028677372503E-03
              -9.1979769056207885E-03
               3.8354051470404528E-03
               1.4135703593812043E-03
              -4.7045511260537711E-03
              -6.8567571459549059E-03
               1.6144849659443920E-03
               1.1501807240829978E-03
               4.6106004547738621E-03
               2.8646367023060825E-03
              -5.5137166028523159E-03
               8.2936880281378085E-03
              -9.4355904850923506E-03
               4.6770963503286431E-04
               8.2469068691529562E-03
              -8.4793461516184318E-03
               2.3145827345643852E-04
              -2.4881519449548133E-03
               1.9611861755152293E-03
              -1.5753489493525372E-02
              -7.7903776529123997E-03
               1.4527461715958975E-02
               8.3616257814704571E-03
               5.2275361738481699E-03
               1.8231977019037774E-04
              -1.4548707047096224E-02
              -3.5509753627207727E-03
               6.4364546027300467E-03
              -6.9106360747575851E-03
              -6.5354926160797605E-03
               1.0372723759484562E-02
               3.8437242352638594E-03
               1.3204895996843463E-02
              -4.0106723000363099E-03
              -5.5394868464019302E-04
              -1.8994488942981472E-03
               1.0577998965293121E-02
              -9.2860221716460981E-04
              -5.0505063718453216E-03
              -9.9843178066770181E-03
               1.4481703018893377E-02
               5.9309343030471218E-03
              -1.0715495513379645E-02
               6.5244839067429075E-03
               3.6137088547325315E-03
              -1.5276648509603631E-03
              -2.3525736452308160E-03
               6.6320706165400780E-03
               8.5333492967924751E-03
               8.7670947870958603E-03
              -1.9618868887372541E-02
              -2.7100830002475574E-04
               1.4764814044381559E-03
               1.6196874899143753E-02
               2.3304726317619750E-04
               4.0093491650866862E-03
              -3.8916095361136351E-03
              -4.4254011266829981E-03
              -8.4702181234608247E-03
               7.2819760070734034E-03
              -2.2747675637055601E-03
               1.0180261022459272E-03
               1.3736959187304158E-03
              -4.5410051716507480E-04
              -5.0738564551274703E-03
               2.8765674316084400E-03
               5.0681900334596536E-04
               1.0701351258035287E-02
              -1.1429791858159051E-02
               3.8685482624743841E-03
              -3.5413072422937411E-03
              -1.5742056430224707E-03
              -8.8471290399492943E-03
               9.3807652702792242E-04
              -1.9414540224072244E-02
               2.0310939179604675E-02
               4.4958500973874627E-03
               9.4002159874665130E-03
              -6.0041003688779898E-03
               1.1600551325174813E-02
              -6.4268566621224687E-04
               1.3936399656053796E-03
               7.2288174488073422E-03
               8.3231159923985078E-03
               7.8082457306602390E-03
              -5.2440844794989592E-03
              -2.0381493873855738E-02
              -3.7912187247253855E-03
               8.7378451262169025E-03
              -6.2972533927453936E-03
               7.9324136557557181E-03
              -5.6981215827320445E-03
               7.0408652071655186E-03
               1.6424077293072758E-03
              -5.7591007895371662E-03
               1.6097591202014757E-02
              -6.2401149228741475E-03
               5.6001188446217745E-04
               4.8593354717634835E-03
              -3.9186302839882290E-03
              -1.1067966334988430E-02
               8.9549594259120211E-03
               2.8585747106130166E-04
               3.5131564123788346E-03
               5.9032594570895278E-03
              -9.9267880827824326E-03
              -1.5568775897144699E-02
               1.0871065168795614E-02
               2.6211004957322386E-03
              -3.1196286287190280E-03
              -1.3651406721364207E-03
              -3.4332646082359778E-03
              -3.8819003009611512E-04
               1.9569230260833570E-03
              -1.4201090802489345E-02
               3.5442082698706773E-05
              -9.9621389848206735E-03
               2.3724386903887524E-03
               2.4316514646774466E-03
               1.6326267892421770E-02
              -7.2746066042515224E-03
              -3.5052603212494152E-03
              -1.2718851089866687E-02
               6.1371044353822147E-03
              -2.3921653986020389E-03
              -3.0972069096657476E-03
              -7.5195388382930176E-03
               4.6566442273462700E-03
              -4.9490693958950428E-03
               2.0635689079794062E-02
               1.0231788753539741E-02
               3.0165582933525314E-03
              -9.9878113178816889E-03
              -1.9733212672191310E-03
              -7.5697816144606913E-04
              -7.1514519377155247E-03
              -8.7151474963582075E-03
               4.4058033775111393E-03
               1.2545300022866680E-02
              -5.0864548581311007E-03
               8.1202722065397553E-03
               1.3282061704782602E-03
               8.2624003775023484E-03
              -6.3794996678937562E-04
              -3.3590933003391091E-04
              -1.4908540375280685E-02
               8.0162590500413508E-03
              -2.6826301318463325E-03
               8.4726949275078386E-05
               7.7933216781821569E-03
               6.5592321745491199E-03
              -1.6892077145167000E-03
               6.2953688339448836E-03
              -8.2266982217986690E-03
              -1.2659674323203597E-02
               1.9323308937682030E-03
               2.4103025948348446E-03
               4.4137249785927909E-03
              -3.7000402860471204E-03
              -3.4143577260973578E-03
               2.4523755593809729E-01
               1.3377422155725427E-02
              -1.0482069767025856E-02
         &END THERMOSTAT_ENERGY
         &RNG_INIT
Wiener process for Thermostat # 1        1 F T T  -1.3877964172148927E+00        3819968671.0        1923139303.0        2505174482.0        1129753110.0        1102497896.0        2318485114.0             12345.0             12345.0             12345.0             12345.0             12345.0             12345.0             12345.0             12345.0             12345.0             12345.0             12345.0             12345.0
Wiener process for Thermostat # 2        1 F T T   5.9690975612399577E-01        1863048650.0        1167059563.0        4156553466.0        2659491592.0        2500563110.0        2967422577.0        3692455944.0        1366884236.0        2968912127.0         335948734.0        4161675175.0         475798818.0        3692455944.0        1366884236.0        2968912127.0         335948734.0        4161675175.0         475798818.0
Wiener process for Thermostat # 3        1 F T T  -1.9577134425325560E-01        2029679022.0        1992813296.0        1475024831.0        3744841000.0        4231717232.0        1872789393.0        1015873554.0        1310354410.0        2249465273.0         994084013.0        2912484720.0        3876682925.0        1015873554.0        1310354410.0        2249465273.0         994084013.0        2912484720.0        3876682925.0
Wiener process for Thermostat # 4        1 F T T  -5.5423907268054418E-01         972191078.0        3239779000.0        2283144792.0        4029872124.0        2868550739.0         388907277.0        2338701263.0        1119171942.0        2570676563.0         317077452.0        3194180850.0         618832124.0        2338701263.0        1119171942.0        2570676563.0         317077452.0        3194180850.0         618832124.0
Wiener process for Thermostat # 5        1 F T T  -3.6874052824979625E-01         246061856.0        2033992607.0        4208640487.0        3425480013.0        1713937449.0        3033523858.0        1597262096.0        3906379055.0        3312112953.0        1016013135.0        4099474108.0         275305423.0        1597262096.0        3906379055.0        3312112953.0        1016013135.0        4099474108.0         275305423.0
Wiener process for Thermostat # 6        1 F T T   5.7875332706651861E-01        4268450248.0        1240555256.0        2123119467.0         299173953.0        2368881629.0        2698044585.0          97147054.0        3131372450.0         829345164.0        3691032523.0        3006063034.0        4259826321.0          97147054.0        3131372450.0         829345164.0        3691032523.0        3006063034.0        4259826321.0
Wiener process for Thermostat # 7        1 F T T  -1.8983145396195047E+00        4260312323.0         705196258.0         937296972.0        1373994383.0        3179698350.0        3757299263.0         796079799.0        2105258207.0         955365076.0        2923159030.0        4116632677.0        3067683584.0         796079799.0        2105258207.0         955365076.0        2923159030.0        4116632677.0        3067683584.0
Wiener process for Thermostat # 8        1 F T T  -3.3116685260855833E-01        2351531572.0        3477839446.0        1021048571.0        1975906828.0        1893564842.0         777663015.0        3281794178.0        2616230133.0        1457051261.0        2762791137.0        2480527362.0        2282316169.0        3281794178.0        2616230133.0        1457051261.0        2762791137.0        2480527362.0        2282316169.0
Wiener process for Thermostat # 9        1 F T T   1.4386427466100791E+00        3265425123.0        2999969280.0        3048908474.0        1047403656.0         134736569.0        4209884843.0        3777646647.0        1837464056.0        4204654757.0         664239048.0        4190510072.0        2959195122.0        3777646647.0        1837464056.0        4204654757.0         664239048.0        4190510072.0        2959195122.0
Wiener process for Thermostat # 10       1 F T T  -2.3947144259907721E-01        2825100143.0        2025717467.0        3827127036.0        1422979577.0        1026966836.0        1481957392.0        4215590817.0        3862461878.0        1087200967.0        1544910132.0         936383720.0        1611370123.0        4215590817.0        3862461878.0        1087200967.0        1544910132.0         936383720.0        1611370123.0
Wiener process for Thermostat # 11       1 F T T   2.8146058156813852E-01        3161233422.0        2404453347.0        1673723662.0         906337025.0          73303549.0        1016746719.0        1683636369.0         362165168.0         814316280.0         869382050.0         980203903.0        2062101717.0        1683636369.0         362165168.0         814316280.0         869382050.0         980203903.0        2062101717.0
Wiener process for Thermostat # 12       1 F T T  -6.6211933450441895E-01         208754144.0        1983222026.0        1378772639.0         460703296.0         651350573.0        3898252829.0         272317999.0         166758548.0         310112982.0         201045826.0        1680231254.0         118290799.0         272317999.0         166758548.0         310112982.0         201045826.0        1680231254.0         118290799.0
Wiener process for Thermostat # 13       1 F T T   2.2418582236869027E-02         545702192.0         878923556.0         464381839.0        1267067492.0        3004786620.0        2258194530.0        2245755202.0        1652682525.0        2865544364.0         721509566.0         209733568.0         592362218.0        2245755202.0        1652682525.0        2865544364.0         721509566.0         209733568.0         592362218.0