 # Version information for this restart file 
 # current date 2023-12-13 22:34:47.074
 # current working dir /scratch/work/courses/CHEM-GA-2671-2023fa/students/hz2750/comp-lab-class-2023/Week12/Runs/Proton
 # Program compiled at                              Sat Dec 12 18:27:15 EST 2020
 # Program compiled on                                         cs001.nyu.cluster
 # Program compiled for                                                nyu-intel
 # Source code revision number                                       git:8c64c6e
 &GLOBAL
   PRINT_LEVEL  LOW
   PROJECT_NAME proton_aimd_1ns_every0.5fs
   RUN_TYPE  MD
   WALLTIME 21600
 &END GLOBAL
 &MOTION
   &GEO_OPT
     OPTIMIZER  BFGS
     MAX_ITER  100
     MAX_DR     3.0000000000000001E-03
     &BFGS
     &END BFGS
   &END GEO_OPT
   &MD
     ENSEMBLE  NVT
     STEPS  2000
     TIMESTEP     4.9999999999999994E-01
     STEP_START_VAL  2000
     TIME_START_VAL     9.9999999999998226E+02
     ECONS_START_VAL    -1.1018977433487325E+03
     TEMPERATURE     3.0000000000000000E+02
     &THERMOSTAT
       TYPE  GLE
       REGION  MASSIVE
       &GLE
         NDIM  5
         A_SCALE     1.0000000000000000E+00
         A_LIST     1.8595758612559999E+02    2.7263853498399998E-01    1.1526100454610001E+01   -3.6414578262600003E+01 \
             2.3173375816020001E+02
         A_LIST    -2.7809524712060002E-01    8.5951591808710006E-05    7.2189048017650004E-01   -1.9844539343859999E-01 \
             4.2409257583420001E-01
         A_LIST    -1.4825808131210000E+01   -7.2189048017650004E-01    1.3590902121280000E+00    5.1498896280349999E+00 \
            -9.9949268450990001E+00
         A_LIST    -1.0372189126880000E+01    1.9844539343859999E-01   -5.1498896280349999E+00    2.6661910891169999E+01 \
             1.1507715495310000E+01
         A_LIST     2.1801346360420001E+02   -4.2409257583420001E-01    9.9949268450990001E+00   -1.1507715495310000E+01 \
             3.0958394565589998E+02
         &THERMOSTAT_ENERGY
              -7.2559618316071054E-05
              -3.4522288147365793E-03
               1.8335190210966377E-04
               5.1139563927409398E-03
              -1.1685841502321020E-02
               6.5545281846910467E-03
              -5.0290184591210247E-03
              -6.9317982594129775E-03
               1.1335464038812455E-02
               2.8928846201017031E-03
               8.5045421790003774E-03
              -3.6621201581956829E-04
               3.9290409155650925E-03
              -1.1798463253061968E-02
               2.0149739577605642E-03
               5.8116792579080041E-04
              -5.2818846491791086E-03
               1.8850420120745763E-03
               2.9068287620167919E-03
              -3.7111196534560290E-03
               1.2233445393019637E-03
               1.3072694246361110E-02
              -9.7375209383256771E-03
              -1.3347406055733662E-02
               9.9396305200013298E-03
               6.8200492088569395E-03
              -1.9159876798376791E-04
               3.4899862753371529E-03
              -7.3797345670841496E-04
               8.4721946687818170E-03
              -2.9111479459465898E-04
              -6.8837278404884550E-03
              -4.2928321608433585E-03
              -1.0757092586214951E-03
              -7.4617588238213477E-03
               1.0643075143557558E-02
               1.9618679304209317E-03
              -2.0716456923349515E-03
              -9.4235764283385104E-04
              -4.0381473135680289E-03
               1.2254514607525392E-02
              -6.3429476622686339E-03
               2.9974623193259478E-03
               5.9628639856164831E-03
              -6.9656629568440806E-03
               1.7695444560771789E-03
               6.0910946355461730E-03
               4.2312450052106663E-05
               1.2952872770948629E-02
               9.6609741271782013E-03
               2.1571151815594037E-02
               7.9846644291646843E-04
               2.2924715096260588E-02
               1.7754692606609824E-02
              -9.3652584482575227E-03
              -6.1736395980164734E-04
              -1.4340050908770833E-03
               1.6454383280737387E-03
               3.9045581938810386E-03
               4.4815532950638927E-03
              -1.5714885990374663E-03
              -2.2571550211735094E-03
               1.0649857423382685E-02
              -3.0859071698632937E-03
               5.7726462981156895E-03
              -5.2141355851366266E-03
              -7.1458096925599499E-03
               1.0010974592412533E-02
               1.9816774324517554E-02
               9.5580936059928726E-04
              -7.4532941235582618E-03
              -7.4388865205277273E-03
              -1.1882024440877509E-03
               4.1046433181664357E-03
              -2.7445801029851091E-03
              -2.2245629234521471E-02
              -2.2922627262809202E-03
               2.7807828899950909E-02
               1.8558827529889108E-02
              -7.1046799038051193E-03
              -9.3941141067319686E-04
              -3.1019034918487376E-03
               2.8399471390616374E-03
              -2.7074813063245858E-03
              -2.9089746647675881E-03
               1.3977229967312209E-02
              -5.9147859220854086E-03
              -1.2412826448395765E-02
               7.0240543991856134E-03
               5.1623475847612163E-03
              -4.4537417710616431E-03
              -8.0194602377914107E-03
               3.0440452170719542E-03
              -7.2204539864364333E-03
              -6.0945272012230501E-03
              -5.9656190843991614E-03
               8.3819344219730613E-03
              -5.5902921511844319E-04
               1.6479711157831357E-02
               8.1085031696755058E-03
               6.5591971786350097E-03
              -2.8996349396593745E-03
               1.3814587886393130E-03
               7.9972479808399621E-03
              -1.0283399701314574E-02
               7.3446811063997740E-03
               1.8861798446939176E-02
               2.7220759079122081E-02
               4.0659332930786359E-03
              -6.6295156152243800E-03
               2.2481391378314278E-03
               8.4364973172525934E-03
               7.7644307806037866E-03
               2.8309951170834382E-03
              -5.0387823656543361E-03
               8.6745425059716350E-04
              -1.3798667620893424E-02
               1.1029270252223373E-03
               4.1867272325513058E-03
               5.7507923398663254E-03
               1.2704854064218374E-03
               4.4134631715402745E-03
              -3.7866394583274468E-03
               3.3884714825722624E-04
               2.2680795269516469E-03
               2.0692413658835896E-04
               1.1459827194581461E-02
               8.5069272846318496E-04
              -3.3323205930030735E-03
               8.6932930956574849E-03
              -1.0977344573824099E-02
               2.3049388588728770E-04
              -5.6221336699941076E-03
              -2.0599705600353026E-04
              -1.6379920854750678E-03
              -7.0955283118624669E-04
               2.5919651961525680E-05
              -1.0311322403760353E-02
               3.4480314902808995E-03
              -9.5867748143093528E-04
              -2.0897207491812563E-03
               8.4280710397773902E-03
               1.0990171503476504E-02
              -7.0758201637938535E-03
              -4.5097088277504661E-04
              -1.4310162438261810E-03
               5.2010871484725321E-03
               8.7683194515974974E-04
              -7.2900380395695174E-03
               5.9650606075410152E-03
              -1.5289566721273145E-02
               1.3394783396437489E-02
               1.2204022552208841E-03
               3.5247797063598974E-04
               5.9950455474205681E-05
              -5.1551805199049451E-03
               7.5301739494750095E-04
               7.0154893080986956E-03
               4.0111341427834825E-03
               2.7193966778292517E-03
              -1.8459019434593849E-03
               1.2925626844522859E-02
              -1.2639151612241022E-03
               3.6161343801125109E-03
               6.5507675438683860E-03
               1.6054448322062907E-02
               2.6195626487257595E-03
              -2.7909591040263339E-02
              -5.5763905661417399E-03
               3.9197678042321099E-03
               1.6263524194316753E-03
               4.7721523036320466E-03
               1.3239593969944495E-02
               1.6484382658892788E-03
              -1.7500763437198509E-02
              -1.1473749102465801E-04
               8.7518443567282736E-03
               2.6091440163615126E-01
               6.5468978880941844E-02
               8.8536447535746132E-03
               5.9961007600923709E-04
              -1.1653298149654036E-03
               4.7515879403861880E-03
              -2.5367699367833021E-02
               2.3951880664418709E-02
              -6.1346287413024416E-05
              -1.0293037802563175E-03
              -8.2083260738042407E-03
              -7.0609053813222257E-03
              -2.0447635207699192E-03
               5.1132526780512796E-03
              -1.3052775435228089E-03
              -2.9922492452407875E-03
               7.9943902387783882E-03
               1.1840397120576895E-02
              -3.9781705757175245E-03
              -1.8370525379400177E-02
               5.0404127788336766E-03
              -5.6353314464292308E-03
              -6.4773171989039471E-04
               1.6878105811047714E-03
              -3.2381541237601337E-03
               1.4831598211573595E-02
              -6.2867264255173625E-04
              -8.5099481647230458E-03
               2.7179991839192540E-03
              -2.3366836701399233E-04
              -5.8489518175657198E-03
               4.7765792247553773E-04
               2.6124798896698881E-03
               5.0306815758611144E-03
              -3.6912952718319231E-03
               1.3496271089370763E-02
              -5.0087281539942241E-03
               9.2868324788687867E-03
              -5.6024527616937393E-03
              -6.9947088420644283E-03
               1.3581414110785410E-02
              -2.2342483064946507E-03
              -1.5549305453109945E-04
               4.4508582892884138E-03
               1.4479731657385409E-02
               4.9545917339353304E-03
               1.1361828770666961E-03
               1.9138389767408084E-04
               3.6797276943042424E-03
               1.0018754173408409E-03
               3.4162764658474364E-03
               4.9899182573173726E-03
               4.8521862746661775E-03
              -2.2201850914613237E-03
               8.4678917971655525E-04
               1.4698355873178580E-02
              -4.2712509325311763E-03
               3.2729232497714917E-03
               1.5154354632922987E-04
              -2.9896107617396611E-03
               2.1706150390108641E-04
               1.2307801754775180E-02
               9.8136714199270787E-03
              -2.7320216901887766E-03
              -3.6530276555308740E-03
              -6.1331959328191814E-03
              -2.6956331267840635E-03
               1.1883282950103804E-04
               7.0119771905166406E-03
               1.1841215852367764E-02
               2.4788237129255144E-04
              -3.1641708005242680E-03
              -4.8926924753613378E-05
              -7.5063895894313410E-03
              -7.0389429994430416E-03
              -7.8117697261708887E-03
              -9.1201299059078672E-04
               9.8423415812285819E-04
               3.1643158371667149E-03
               9.0352486246538643E-03
              -6.9712575821038961E-03
               1.8908880452472732E-02
              -1.9758178642824014E-02
               1.7638224070884091E-02
               8.7649471492740553E-03
               3.3530218452917852E-03
               1.4373226384300300E-03
              -3.5198201300757053E-03
              -7.7798244081126421E-03
               1.9225022995994469E-02
               4.8363997479128035E-02
               6.9941757121357820E-04
               3.6550093569608783E-02
              -3.4304929130845076E-03
              -4.2170087895783085E-03
              -1.7343191456641160E-03
               1.2381604357544132E-02
              -4.3450120167872882E-03
              -3.8013243543865913E-04
              -2.6895075834846037E-02
               2.0592389573504712E-02
              -2.2950748888502306E-03
               5.2195038272037069E-03
              -3.2204124643513132E-03
               6.8701838317657147E-03
              -2.2958583519643670E-03
              -1.3186188726431183E-03
              -4.2748799806711273E-03
               9.6091288707464521E-03
              -4.7287324083866841E-03
              -2.6186529433454815E-03
              -3.3497392330300462E-03
               7.2735681881522357E-05
              -3.2321976317064944E-03
               1.5341739169885111E-02
              -1.5546389551822339E-02
               2.8478414976124459E-03
              -6.9843020901782062E-04
               6.6285781385123374E-03
              -8.3529064676875434E-03
               2.0876896218051974E-04
               3.0386167630074832E-03
              -3.4924243571651452E-03
               1.5596988382538413E-04
               1.2133656648903399E-02
               6.0623467628032933E-03
              -1.2669139477437411E-03
               6.3488517692086924E-03
              -1.4247450167487619E-02
               1.8366061954496931E-03
               8.7276542186422740E-03
              -9.6866022101249286E-03
               7.3573596556646579E-03
               4.9964764454153666E-03
              -1.4021207979977047E-02
              -2.9460122383495281E-03
               1.2954285549767353E-02
               3.6535242077441531E-03
               3.9387382553006641E-03
              -2.8252642276240239E-03
               5.7255569976610975E-03
              -1.8051376156840754E-03
              -9.9588781705475739E-04
               9.5557704741506388E-03
              -1.3877501175068981E-02
              -5.4726554685593726E-03
               1.2025331708033934E-02
              -5.7542376985907136E-03
               2.5203209606352640E-03
               1.9798587392850469E-03
               3.9682668116443305E-03
              -1.8660316365779351E-03
               8.1229514106931147E-03
               3.5826670274780939E-03
              -7.0866677620862904E-03
               6.3592903458664805E-03
              -4.0473502134890900E-03
              -5.2297647138888472E-04
               8.6705853588744800E-04
               1.3581112706290949E-02
               8.7089600602434786E-03
              -1.9003953424381423E-02
               1.4624684609130417E-02
               2.5753321025421575E-03
               3.7811875285223332E-03
               5.6396200254799740E-04
              -5.1841923666589521E-03
              -2.1886642932693896E-03
               3.1097323306478170E-04
              -4.4116620072399736E-03
              -4.1898119238981792E-03
              -9.4045557210999673E-04
               2.3639581939946075E-03
               4.6965526899413008E-03
               3.0645117127217109E-03
              -9.0433835871134276E-03
               2.5414573144547687E-03
              -1.1184488295349739E-02
               1.6873600387197946E-02
               4.9959968802528749E-03
              -1.1434534217211557E-02
              -1.2528159947575624E-02
               1.8679314832849601E-02
              -2.0875311559603519E-03
               3.6134678199021158E-03
              -4.0347011095401859E-03
              -4.3224543038580194E-03
               2.8121065136996887E-03
               1.1493592110825243E-02
               8.0511381037463980E-03
               5.3042781145526711E-04
               1.1402724859319263E-02
               5.1976865636694444E-03
               5.4056574832945575E-03
              -1.0222389119016212E-02
               1.3159267509601075E-02
              -1.7466806103378987E-03
               8.5674869846547198E-03
              -9.3972737162934996E-03
               1.0251020392575052E-02
              -1.4229578255909267E-02
              -1.3357669335723602E-03
               2.1537291681232888E-03
               9.2496830332496130E-03
               7.3859173324739968E-03
               1.7794647085559456E-02
              -9.2420510422942369E-03
              -1.6725966577162080E-02
               1.3087116256467102E-02
              -7.6219864704572416E-03
              -4.0090118450296476E-03
              -3.1174688670976888E-03
              -1.1781920287055835E-03
              -9.2761447515772606E-03
               1.2901428171450395E-02
               4.7570156893153564E-03
              -1.3643364939812703E-02
               6.8046200400374117E-03
              -4.9174965155192958E-04
              -8.3226262575032770E-03
              -3.1869282797698170E-03
               4.3091654403846604E-03
              -2.2845872903362562E-02
               5.1983735083787881E-04
               1.0735675397378176E-02
              -6.0067082287222863E-03
               5.7307982713077988E-03
               1.3387618097159855E-02
              -4.6338127700026599E-03
               2.3772574690810364E-03
               4.2644377259936821E-03
              -1.0098615638434451E-02
              -1.2688376358937817E-03
               7.3385545277923495E-03
               9.6306122822665333E-03
              -6.0603468576574931E-03
               7.6212451696721700E-03
              -1.8011231710842919E-03
              -2.9876851245965689E-04
               3.8063970509709041E-03
              -8.8775919346397152E-03
               3.9596460720849446E-03
               1.2506497985913675E-03
              -4.6957000857506172E-03
              -6.8686351491776300E-03
               1.7698934243055152E-03
               1.1954404348525664E-03
               3.9549548916157137E-03
               2.7538190939389549E-03
              -5.4854192982742439E-03
               8.3057367423536640E-03
              -9.4238972923505662E-03
               4.5338579822005629E-04
               8.2243324262354384E-03
              -8.6671897390330471E-03
               5.0897466961801602E-04
              -2.3532885897746144E-03
               2.5472033057827022E-03
              -1.5987719964266536E-02
              -7.1797372181821289E-03
               1.3249705681962017E-02
               8.1078865448904851E-03
               4.8966184080672537E-03
               4.3625853382522320E-04
              -1.4602468674897838E-02
              -3.7404985277278363E-03
               6.1372863453091177E-03
              -6.8662961931726827E-03
              -6.6558160592937125E-03
               1.0434556894194343E-02
               3.4901358622704492E-03
               1.3108599570129602E-02
              -4.0444976504271637E-03
              -3.6535423332291689E-04
              -1.9348034790209725E-03
               1.0734353352962344E-02
              -8.8762656444557793E-04
              -5.1995237127749321E-03
              -9.9305939210027564E-03
               1.5052622321127161E-02
               5.9814610269453960E-03
              -1.0310989612163158E-02
               6.4327658729941154E-03
               3.5812219354766925E-03
              -1.5586938616252591E-03
              -1.5666237794134492E-03
               6.6729143236506725E-03
               8.5734699443840434E-03
               8.8056188365618696E-03
              -1.9492703363401066E-02
              -6.4825944872320030E-04
               1.9492920509968988E-03
               1.5258767861459801E-02
               3.0378544829052617E-04
               4.0673425325450834E-03
              -3.6976052155154129E-03
              -4.4096971299012510E-03
              -8.3663267831461264E-03
               7.2725346602715412E-03
              -2.2636939236116015E-03
               7.7717996593010155E-04
               3.5235387313889205E-04
              -6.7199098647031290E-04
              -5.0517238341680672E-03
               3.1098074777655836E-03
               9.2770022776907991E-04
               1.0496005120612502E-02
              -1.1573355566614487E-02
               3.6922918019328017E-03
              -3.5878457810375047E-03
              -2.0373920699609470E-03
              -9.6363149549260826E-03
               6.6985481105094440E-04
              -1.9326217466047142E-02
               2.0284352926901967E-02
               4.4837886867186627E-03
               9.5191221601306532E-03
              -6.1845641711621114E-03
               1.1649715990624022E-02
              -6.7954407959306740E-04
               1.4055054597747591E-03
               7.1642851141952612E-03
               8.4912833139044550E-03
               7.8640556408019618E-03
              -5.2394790934873993E-03
              -2.0332649717143981E-02
              -4.0454824408208915E-03
               8.8935288096638216E-03
              -6.1903295833936021E-03
               7.6387398480109881E-03
              -5.8004357865852106E-03
               7.1980396016652105E-03
               1.9534694942666309E-03
              -5.3062470859986093E-03
               1.6078673610424359E-02
              -6.2638365818200445E-03
               3.8387722155179354E-04
               4.9765172442887817E-03
              -3.6965766140974752E-03
              -1.0782272175134930E-02
               9.0952557935763019E-03
               4.7484833459010046E-04
               3.4684010983771080E-03
               6.0650807154508015E-03
              -1.0252016208648128E-02
              -1.5919977002752189E-02
               1.0832934786613143E-02
               2.7066757313633197E-03
              -2.9745858423946264E-03
              -1.6591550438546871E-03
              -3.1975779627303642E-03
              -1.9844694359090477E-05
               2.2108807622851639E-03
              -1.4103513112463587E-02
               5.3128110006708590E-04
              -1.0276474518998857E-02
               2.6104233503426886E-03
               3.2572745863095318E-03
               1.6400810810203240E-02
              -6.7208990109762622E-03
              -3.5162436297028988E-03
              -1.2691328065504097E-02
               7.7908239659147914E-03
              -2.8527861176311366E-03
              -2.9418874886507958E-03
              -8.3774186552590686E-03
               3.2857305708922204E-03
              -4.8763770669729293E-03
               2.0486690281712270E-02
               1.0188610929447735E-02
               4.2814361679137476E-03
              -1.0311238449027232E-02
              -2.6492192512940446E-03
              -7.6670108876824813E-04
              -7.3514127217078713E-03
              -9.4368414842101143E-03
               4.6158435762883275E-03
               1.2894353108893378E-02
              -5.2975971894906500E-03
               8.2661368731771125E-03
               1.0580951780963526E-03
               7.9342364251629022E-03
              -6.9723908481171635E-06
              -5.8464352603858805E-04
              -1.4886199873058814E-02
               8.1542158110037566E-03
              -3.8680331904776474E-03
               5.8187776516972627E-05
               7.3010990845129254E-03
               6.5571396320862479E-03
              -1.7053227839823083E-03
               6.4970360756605606E-03
              -8.0012748029136514E-03
              -1.2878255228461267E-02
               1.6936768926171964E-03
               2.3992621535069286E-03
               4.9959997512582987E-03
              -4.0063533113406866E-03
              -3.4315808753063552E-03
               2.4563099145987380E-01
               1.3412854985336101E-02
              -1.0607291428962407E-02
         &END THERMOSTAT_ENERGY
         &RNG_INIT
Wiener process for Thermostat # 1        1 F T T  -4.3866331554119464E-01        3463026290.0         996283881.0        3077134961.0        1575188103.0         352198642.0        1255594993.0             12345.0             12345.0             12345.0             12345.0             12345.0             12345.0             12345.0             12345.0             12345.0             12345.0             12345.0             12345.0
Wiener process for Thermostat # 2        1 F T T   6.1664168869435698E-01         581397078.0        3867423482.0         327967633.0        1486938113.0          26429212.0        4093174459.0        3692455944.0        1366884236.0        2968912127.0         335948734.0        4161675175.0         475798818.0        3692455944.0        1366884236.0        2968912127.0         335948734.0        4161675175.0         475798818.0
Wiener process for Thermostat # 3        1 F T T   2.0518696979926636E+00        1062843694.0        3278483557.0        2630284801.0         342499437.0         508306288.0         570022504.0        1015873554.0        1310354410.0        2249465273.0         994084013.0        2912484720.0        3876682925.0        1015873554.0        1310354410.0        2249465273.0         994084013.0        2912484720.0        3876682925.0
Wiener process for Thermostat # 4        1 F T T   8.6483655468840070E-01         858988242.0         878260951.0        1341305949.0        1687735708.0        1261279903.0        1615458589.0        2338701263.0        1119171942.0        2570676563.0         317077452.0        3194180850.0         618832124.0        2338701263.0        1119171942.0        2570676563.0         317077452.0        3194180850.0         618832124.0
Wiener process for Thermostat # 5        1 F T T  -7.2623034709222295E-02        3503246388.0        3640749438.0          80160185.0        4050541932.0        1809135917.0         826251710.0        1597262096.0        3906379055.0        3312112953.0        1016013135.0        4099474108.0         275305423.0        1597262096.0        3906379055.0        3312112953.0        1016013135.0        4099474108.0         275305423.0
Wiener process for Thermostat # 6        1 F T T   2.6094790259997280E+00        1648662560.0         298744963.0         276080774.0        3452610735.0        2129471280.0        4132861437.0          97147054.0        3131372450.0         829345164.0        3691032523.0        3006063034.0        4259826321.0          97147054.0        3131372450.0         829345164.0        3691032523.0        3006063034.0        4259826321.0
Wiener process for Thermostat # 7        1 F T T   1.3118545096244869E+00        4025695046.0        1027992126.0        3217973651.0        2155997853.0        1780084567.0        1907814450.0         796079799.0        2105258207.0         955365076.0        2923159030.0        4116632677.0        3067683584.0         796079799.0        2105258207.0         955365076.0        2923159030.0        4116632677.0        3067683584.0
Wiener process for Thermostat # 8        1 F T T   7.1524753302764935E-02        2631328646.0          66904958.0        3191287979.0        3452779318.0        2048731614.0        3759050068.0        3281794178.0        2616230133.0        1457051261.0        2762791137.0        2480527362.0        2282316169.0        3281794178.0        2616230133.0        1457051261.0        2762791137.0        2480527362.0        2282316169.0
Wiener process for Thermostat # 9        1 F T T  -1.0980465140389938E-01        1977246253.0        1903248984.0        3508262652.0        2466127224.0         300284070.0         767034957.0        3777646647.0        1837464056.0        4204654757.0         664239048.0        4190510072.0        2959195122.0        3777646647.0        1837464056.0        4204654757.0         664239048.0        4190510072.0        2959195122.0
Wiener process for Thermostat # 10       1 F T T   1.9081094228418396E+00         405211316.0        3215252316.0        3029076279.0        3899943421.0         886526099.0         586515832.0        4215590817.0        3862461878.0        1087200967.0        1544910132.0         936383720.0        1611370123.0        4215590817.0        3862461878.0        1087200967.0        1544910132.0         936383720.0        1611370123.0
Wiener process for Thermostat # 11       1 F T T  -5.3344054384789541E-01        3450000619.0        1059116059.0        3916567347.0         635813254.0        3901690603.0        3696418470.0        1683636369.0         362165168.0         814316280.0         869382050.0         980203903.0        2062101717.0        1683636369.0         362165168.0         814316280.0         869382050.0         980203903.0        2062101717.0
Wiener process for Thermostat # 12       1 F T T   8.9448207812820613E-01        1696219248.0        1783691089.0        1685873716.0        1285524479.0        2726140602.0        4269630803.0         272317999.0         166758548.0         310112982.0         201045826.0        1680231254.0         118290799.0         272317999.0         166758548.0         310112982.0         201045826.0        1680231254.0         118290799.0
Wiener process for Thermostat # 13       1 F T T  -1.0297203341400047E+00        4019568919.0        3484227797.0         947541978.0        4224885921.0        2127446270.0         502669027.0        2245755202.0        1652682525.0        2865544364.0         721509566.0         209733568.0         592362218.0        2245755202.0        1652682525.0        2865544364.0         721509566.0         209733568.0         592362218.0