 # Version information for this restart file 
 # current date 2023-12-13 22:34:21.996
 # current working dir /scratch/work/courses/CHEM-GA-2671-2023fa/students/hz2750/comp-lab-class-2023/Week12/Runs/Proton
 # Program compiled at                              Sat Dec 12 18:27:15 EST 2020
 # Program compiled on                                         cs001.nyu.cluster
 # Program compiled for                                                nyu-intel
 # Source code revision number                                       git:8c64c6e
 &GLOBAL
   PRINT_LEVEL  LOW
   PROJECT_NAME proton_aimd_1ns_every0.5fs
   RUN_TYPE  MD
   WALLTIME 21600
 &END GLOBAL
 &MOTION
   &GEO_OPT
     OPTIMIZER  BFGS
     MAX_ITER  100
     MAX_DR     3.0000000000000001E-03
     &BFGS
     &END BFGS
   &END GEO_OPT
   &MD
     ENSEMBLE  NVT
     STEPS  2000
     TIMESTEP     4.9999999999999994E-01
     STEP_START_VAL  1997
     TIME_START_VAL     9.9849999999998249E+02
     ECONS_START_VAL    -1.1018977433487325E+03
     TEMPERATURE     3.0000000000000000E+02
     &THERMOSTAT
       TYPE  GLE
       REGION  MASSIVE
       &GLE
         NDIM  5
         A_SCALE     1.0000000000000000E+00
         A_LIST     1.8595758612559999E+02    2.7263853498399998E-01    1.1526100454610001E+01   -3.6414578262600003E+01 \
             2.3173375816020001E+02
         A_LIST    -2.7809524712060002E-01    8.5951591808710006E-05    7.2189048017650004E-01   -1.9844539343859999E-01 \
             4.2409257583420001E-01
         A_LIST    -1.4825808131210000E+01   -7.2189048017650004E-01    1.3590902121280000E+00    5.1498896280349999E+00 \
            -9.9949268450990001E+00
         A_LIST    -1.0372189126880000E+01    1.9844539343859999E-01   -5.1498896280349999E+00    2.6661910891169999E+01 \
             1.1507715495310000E+01
         A_LIST     2.1801346360420001E+02   -4.2409257583420001E-01    9.9949268450990001E+00   -1.1507715495310000E+01 \
             3.0958394565589998E+02
         &THERMOSTAT_ENERGY
               1.2226946455727201E-04
              -3.5538726119836834E-03
               1.8586651312631601E-04
               3.7901506151412686E-03
              -1.2149444073299639E-02
               6.4699910522797253E-03
              -6.2164135898292788E-03
              -6.7015314969064432E-03
               1.1402873048875007E-02
               2.5492837426993147E-03
               9.2250819257662809E-03
              -2.1617614719257413E-04
               4.0739437496778007E-03
              -1.2181599693413377E-02
               1.9466880697551535E-03
               1.0250344509996397E-03
              -4.9595660818523820E-03
              -1.8019657727479104E-03
               3.4357969441832009E-03
              -3.8007847642667993E-03
               1.1726271794550128E-03
               1.3011329810019793E-02
              -9.6938847648285423E-03
              -1.3370595689258569E-02
               9.8745942645888062E-03
               7.1583671729872215E-03
              -1.4891272156339173E-04
               2.8369213787785836E-03
               5.7339345512720649E-05
               8.2321988757129844E-03
              -1.3863314771226875E-04
              -7.0757109583252670E-03
              -4.5896624141278384E-03
              -1.5530376052829849E-03
              -6.8637619484702810E-03
               1.1151605194481976E-02
               1.9631791508021132E-03
              -2.0701588721534925E-03
              -1.0283565545814932E-03
              -4.1006311982084162E-03
               1.2233168295246212E-02
              -6.7610981851195058E-03
               3.0795156901439707E-03
               5.9777041940903674E-03
              -6.8366935920054217E-03
               3.2320143001604959E-03
               6.6325888936614105E-03
               2.3725964746711530E-04
               1.3140159691816483E-02
               1.0232473658345662E-02
               2.0045762413824511E-02
               7.4419876020111360E-04
               2.2716529910802391E-02
               1.8169417202620310E-02
              -8.8143506229924323E-03
              -6.4084546317656830E-04
              -1.4563732303961691E-03
               1.7499382794095946E-03
               3.9650736363965782E-03
               4.2774517808809942E-03
              -1.5306299783425202E-03
              -1.7823139165552312E-03
               1.0346151681869255E-02
              -3.0883506313834101E-03
               6.1728497224079922E-03
              -2.8341746741009670E-03
              -6.5104573346602881E-03
               9.6770736933943485E-03
               1.9725500935004033E-02
               9.7492129839676066E-04
              -7.1672248968529910E-03
              -7.3047933606818190E-03
              -1.0887993999237700E-03
               1.6468445367419466E-03
              -2.6267020609937147E-03
              -2.2055894495388122E-02
              -2.3148442406438255E-03
               2.6514832501026629E-02
               1.9196118628842882E-02
              -6.9122335512669022E-03
              -8.5210394565373793E-04
              -2.9693617255135887E-03
               2.8955581726532384E-03
              -1.9720320256867278E-03
              -2.9251929314843225E-03
               1.3796226634642918E-02
              -6.0284280997554987E-03
              -1.2798593324007158E-02
               7.2903812555266487E-03
               4.2402246850564655E-03
              -4.7718407166811210E-03
              -7.6002295872313321E-03
               3.1328306712773151E-03
              -7.9317184008768343E-03
              -6.7582120663825665E-03
              -5.4510574061128496E-03
               6.1494353468599114E-03
              -5.6207972881284823E-04
               1.6503704041758934E-02
               7.7766257522941832E-03
               6.4648255801047919E-03
              -3.0808329073195827E-03
               1.3092554205304285E-03
               7.6778770279315863E-03
              -1.0939176678606426E-02
               7.2892456510237824E-03
               1.8904078058576284E-02
               2.7663356215738396E-02
               4.2897091063363799E-03
              -6.5383088359967497E-03
               1.6321802691544509E-03
               9.0251638642720438E-03
               7.0292079268481043E-03
               3.0694150869536802E-03
              -4.6824965167218116E-03
               8.2702641784572982E-04
              -1.3534600577512636E-02
               1.4406383458541218E-03
               4.0787258291099162E-03
               5.8614588811895605E-03
               9.8442931066095116E-05
               4.1354035108418282E-03
              -3.8895033028847497E-03
               4.4231215741574384E-04
               1.8599124969748669E-03
              -5.4781376483275602E-05
               1.1002464989427044E-02
               8.5134451387117518E-04
              -2.7641984158091847E-03
               8.5732645298875493E-03
              -1.1433282605489961E-02
               4.6361275137657908E-04
              -5.2760530986937044E-03
              -2.0834901294432132E-04
              -6.0388471250722841E-04
              -2.0521608093075541E-03
              -1.2254581558699457E-03
              -1.1986176484922166E-02
               3.1085407512521776E-03
              -9.5891485091791052E-04
              -1.2881245197356493E-03
               8.6303456193792816E-03
               1.1820726155533636E-02
              -7.7142021609535837E-03
              -3.6906642212901884E-04
              -1.9774369749096616E-03
               5.0136274857380345E-03
               1.0822012139978607E-03
              -7.3780199277821493E-03
               5.7158686186171044E-03
              -1.5311576196155908E-02
               1.3083727471363020E-02
               8.5735132273785837E-04
              -1.3948484690124543E-03
               1.3728994664754916E-04
              -5.7056999875211714E-03
               8.8843515930923077E-04
               8.1488146502376770E-03
               4.1177835924337911E-03
               2.7567943699926445E-03
              -1.6903942307967153E-03
               1.2291880509765480E-02
              -1.2400836279130947E-03
               3.3805540456488562E-03
               7.4766171049762157E-03
               1.5079019903452395E-02
               3.6775848832431512E-03
              -2.8357684164605945E-02
              -5.4233010095954964E-03
               3.9817691150440251E-03
              -3.0870828927037088E-04
               4.7028257739612136E-03
               1.3665083124665385E-02
               1.6303276081159168E-03
              -1.7584049778326904E-02
               1.8941644080675517E-04
               8.2807123764079942E-03
               2.6195481869591919E-01
               6.5923077277221742E-02
               9.4282049637003928E-03
              -6.3019619583194156E-04
              -1.3013677236000840E-03
               4.7360479018217433E-03
              -2.6565624002702876E-02
               2.3933712736310005E-02
              -1.3465169121016744E-03
              -8.2000026617713012E-05
              -8.0930143733943371E-03
              -7.0920948509011145E-03
              -1.8850353706455912E-03
               5.3972950058890244E-03
              -1.5450649156125032E-03
              -3.5316324496792902E-03
               8.8805580966498741E-03
               1.2395653397056814E-02
              -4.2378781941755910E-03
              -1.9671696879146619E-02
               5.7890949795315894E-03
              -5.6179699125410735E-03
              -6.3898256329618093E-04
               2.1535876184769496E-03
              -3.2584128945758440E-03
               1.5022026368309170E-02
              -6.3537607923320550E-04
              -9.2596513205122615E-03
               2.8715461500965467E-03
              -1.2960692436318018E-04
              -5.8198957022910528E-03
               8.6980717233450984E-04
               2.7609020405923086E-03
               4.9298607029472086E-03
              -4.1152785226854140E-03
               1.3598888137728861E-02
              -5.4075629755398992E-03
               9.3551339263499775E-03
              -5.7621425312453416E-03
              -7.6377908763459647E-03
               1.3571293747298135E-02
              -3.0717853397106590E-03
              -2.4075620076352433E-04
               4.9691603537605185E-03
               1.4456588145413165E-02
               4.1588885281292447E-03
              -2.7884045985272451E-04
               9.1481265530884840E-04
               3.6772994233270043E-03
               7.7467139258890160E-04
               3.5420525698476747E-03
               4.6201963204776618E-03
               4.8744342271087307E-03
              -2.4094602212086226E-03
               4.2324661050462397E-04
               1.3889683005104047E-02
              -4.0964440960189787E-03
               2.8112750508822960E-03
               8.0788898468636959E-05
              -3.2375540591974444E-03
               1.3058797861920893E-04
               1.1535412650036804E-02
               9.9030401897852015E-03
              -2.6813661367160410E-03
              -3.4170950604113749E-03
              -5.6957347170304012E-03
              -3.4923607712316900E-03
              -1.6027274326842254E-03
               7.0012783477740410E-03
               1.2090120979717723E-02
               1.0962950542413028E-03
              -3.1792157715846356E-03
              -2.3433416073946443E-04
              -7.4489717266057595E-03
              -6.8965864639798256E-03
              -8.1243264146124324E-03
              -8.0740660870115468E-04
               1.1460886241594290E-03
               3.0364894353088197E-03
               9.0183298927916395E-03
              -7.3825121187320649E-03
               1.8931412661641278E-02
              -2.1042886115895214E-02
               1.7843861448073730E-02
               8.7963500930263970E-03
               3.1083831683556347E-03
               2.5746272406367236E-03
              -3.0221498126860717E-03
              -8.9692133291643626E-03
               1.8631125325593655E-02
               4.8548666242348451E-02
               1.1482414364209319E-03
               3.6479285727678570E-02
              -3.4401918865699307E-03
              -4.2629019265864321E-03
              -1.4225264246294823E-03
               1.2116321413959585E-02
              -4.5360067101974429E-03
              -3.7226511230699410E-04
              -2.7070063582968918E-02
               2.0435045895381476E-02
              -2.6208570240049377E-03
               4.7886842999481883E-03
              -4.5037438719117183E-03
               5.8082005998368507E-03
              -2.4498625773679695E-03
              -2.7496653779623195E-03
              -4.0764602028214815E-03
               1.0518063141350120E-02
              -3.0656214577061565E-03
              -2.8118943512148065E-03
              -3.5146334539436328E-03
              -3.2590985515609154E-04
              -3.9339247986646215E-03
               1.5048916244601465E-02
              -1.4921875798660307E-02
               2.4625235380849779E-03
              -2.9960220734041144E-04
               6.8269915138317837E-03
              -7.6710882214778044E-03
               8.0247542732547836E-04
               2.6833859727270213E-03
              -3.4100839136692812E-03
              -2.2005652011436406E-04
               1.1978622767584480E-02
               6.0760518227778232E-03
              -1.3845410963852138E-03
               6.3289835954328227E-03
              -1.4631630300670790E-02
               1.0451296505955578E-03
               8.8691254466802556E-03
              -9.7091746391845292E-03
               6.9352101819478212E-03
               3.8488524971895910E-03
              -1.4508318356173517E-02
              -2.9589485195413924E-03
               1.3014720331274205E-02
               3.9167466709439363E-03
               4.3476913933028286E-03
              -3.1891987396177137E-03
               5.7068306027398645E-03
              -1.9445202342256611E-03
              -1.0187286507939086E-03
               9.1796760316840923E-03
              -1.2972056726806448E-02
              -5.7376373667559766E-03
               1.2064957934433169E-02
              -5.0650497913099363E-03
               3.1159496873610073E-03
               1.8668069940601705E-03
               3.6029422493694947E-03
              -2.1611196164612631E-03
               7.9012932113177916E-03
               2.5251604927836804E-03
              -5.6489114055297386E-03
               6.0164738859276416E-03
              -4.0653354440627430E-03
              -4.4367474779068394E-04
               4.2891888799069869E-04
               1.3260196867837882E-02
               8.7549614411833749E-03
              -1.8024590800100639E-02
               1.5350744924281755E-02
               3.6501029774306283E-03
               3.8827070026035194E-03
               2.7869118895924980E-04
              -5.1165126161995854E-03
              -1.8184629127396871E-03
               2.8000428127434728E-04
              -5.0726269326946353E-03
              -4.1626140726656567E-03
              -4.1364678771251180E-04
               2.3996165678692835E-03
               4.7990339676945108E-03
               3.0337943835561905E-03
              -8.0650088741659482E-03
               2.5488046312262458E-03
              -1.1153620390603497E-02
               1.6669696401580277E-02
               4.2587112157176600E-03
              -1.1513322220855222E-02
              -1.2244766529987969E-02
               1.8647493550314167E-02
              -1.7842958079332912E-03
               2.5822535493037211E-03
              -5.1290388273087769E-03
              -4.2758689035834298E-03
               2.8421517848089056E-03
               1.1578422387576382E-02
               7.8379002805430663E-03
               5.2714518387774649E-04
               1.1096590699079013E-02
               5.0892482026803675E-03
               5.4103743704218112E-03
              -1.1745282489206477E-02
               1.3200146417729812E-02
              -1.0390537094491599E-03
               8.4772859298425755E-03
              -9.3415884856199276E-03
               1.0261823989417879E-02
              -1.4391822517651139E-02
              -1.8139045326206063E-03
               2.1755083520876217E-03
               8.4135120044901944E-03
               7.9649657610516879E-03
               1.8355634074137477E-02
              -9.9977236666432857E-03
              -1.5629620496881554E-02
               1.2500438293297783E-02
              -7.6235270904719049E-03
              -4.0866751463787153E-03
              -4.3457988924824817E-03
              -1.3408114386615874E-03
              -9.3844051883604125E-03
               1.3207205525964881E-02
               5.3122769217552410E-03
              -1.4004588422078690E-02
               8.3271183293091178E-03
              -3.3023609763093537E-04
              -8.4660031654989181E-03
              -2.9703750810365767E-03
               3.2186768008915572E-03
              -2.2638865567436044E-02
               1.4114903123535613E-03
               1.1134264811717847E-02
              -5.3846124620528010E-03
               5.2749678848311677E-03
               1.4265149020370734E-02
              -4.3991105896492768E-03
               2.7793117993546094E-03
               3.2426368663151894E-03
              -1.0128320933893809E-02
              -1.3018448330110594E-03
               7.6455828539108341E-03
               9.4526205385914060E-03
              -6.5084640914557269E-03
               7.5728685160464755E-03
              -1.8206044379663431E-03
              -3.0987034601600948E-04
               3.9413534739610144E-03
              -8.7504803398976219E-03
               3.8038271909158726E-03
               1.2824142166504256E-03
              -4.7362018867123136E-03
              -6.7094261259973550E-03
               1.3861965573107571E-03
               1.1985399231501574E-03
               3.5066741147005975E-03
               2.7449947777077295E-03
              -5.4345241907963983E-03
               8.1522511774214518E-03
              -8.9148325970264900E-03
               4.3901094569745208E-05
               8.2022150732915435E-03
              -8.5489525553029081E-03
               5.6770636773533737E-04
              -2.5594677105455887E-03
               3.7284915430808312E-03
              -1.5757813668055003E-02
              -6.3555576462780766E-03
               1.4738777236675696E-02
               8.1202919198615289E-03
               5.4003450973911455E-03
              -1.0518558914224365E-03
              -1.4079992693327728E-02
              -3.5924293428525478E-03
               6.4664588864482538E-03
              -6.8451939875897308E-03
              -6.5471098865648308E-03
               1.0177835486911339E-02
               3.7647976214115263E-03
               1.3694286385291632E-02
              -4.0272784768601317E-03
              -4.4683216655249763E-05
              -1.8724656155036602E-03
               1.0755328018841182E-02
              -1.0641376846916954E-03
              -4.4459259259268212E-03
              -9.9059333522623222E-03
               1.4516579060010724E-02
               6.0271835254708814E-03
              -1.0554170478310575E-02
               5.5363560185740773E-03
               3.0569483118760461E-03
              -1.5277360445916889E-03
              -2.1029035475930609E-03
               6.5061561036432302E-03
               8.1157984993828862E-03
               8.3239568228573365E-03
              -1.9408364861222653E-02
              -3.4903338130534494E-04
               1.3337935176905534E-03
               1.5845801877290965E-02
              -9.9623242866547150E-05
               3.8138435508292736E-03
              -3.4556538111095206E-03
              -4.2159400310989130E-03
              -8.5277490899130937E-03
               7.1866155322117984E-03
              -2.6374197438894503E-03
               1.0657488445014718E-03
               1.5945451385112543E-03
              -1.4814100184785798E-04
              -5.4492948558582362E-03
               1.7302739854374559E-03
               2.0840191264332353E-03
               1.0447736691183464E-02
              -1.1183819250262954E-02
               3.8659278583003886E-03
              -3.6191146893863827E-03
              -2.7339004182446039E-03
              -1.0707971158067032E-02
               8.9892315058686095E-04
              -1.9212185179561279E-02
               2.0052156409386679E-02
               4.4880509019843001E-03
               9.4055117474626544E-03
              -6.0473999673303202E-03
               1.1505003118156179E-02
               1.1841909961841544E-04
               1.7754473519602221E-03
               7.2060755889984838E-03
               8.3353297646924420E-03
               8.2684340987275069E-03
              -5.1667297024828342E-03
              -2.0256997373418500E-02
              -4.6671085129284555E-03
               8.4571804737186684E-03
              -7.0985666405907729E-03
               7.7902354162459305E-03
              -5.5829115017901453E-03
               6.8555471706997530E-03
               1.8910753103099690E-03
              -6.4416183737709123E-03
               1.6087826075713671E-02
              -6.2430159227835442E-03
               4.4626723234743901E-04
               4.8527619361690266E-03
              -4.0498218937057790E-03
              -1.0824491754142705E-02
               8.6931579396924384E-03
               8.9787259286444176E-05
               3.5186997491826509E-03
               5.8846638908700462E-03
              -9.8851115387022705E-03
              -1.5725139464644315E-02
               1.0876143360813382E-02
               2.7053208477788807E-03
              -2.9580741967834183E-03
              -1.4445783839218615E-03
              -3.2967183097544527E-03
              -1.0507206182430796E-03
               1.6424307308829701E-03
              -1.4243655753677148E-02
               2.0613715168046437E-04
              -9.4828024371711433E-03
               2.2322469060466867E-03
               2.3160025094665793E-03
               1.6372820883222342E-02
              -6.6723398508771598E-03
              -3.5331817484922992E-03
              -1.2715729251961487E-02
               8.9145240962213053E-03
              -2.1548964948950198E-03
              -3.1159855037808299E-03
              -7.5315192309231135E-03
               4.1728708732511237E-03
              -4.8093941213298063E-03
               2.0416385045111410E-02
               1.0376059054922487E-02
               4.0351298024438632E-03
              -9.9515345452840416E-03
              -2.2654600728189262E-03
              -1.5058115313577093E-03
              -6.8082520471296646E-03
              -8.5388577958562129E-03
               4.4729817781358223E-03
               1.2299481225788668E-02
              -5.0842178859188941E-03
               8.1894878100406028E-03
               1.2932039793182924E-03
               8.2634261541218983E-03
               3.8373330415701493E-04
              -1.0213624598018102E-03
              -1.4943464858215388E-02
               7.8319088113154352E-03
              -3.4580406110993221E-03
               1.9147735551405541E-04
               7.0876471639744146E-03
               7.3939691472945076E-03
              -7.3262777883448434E-04
               6.2079437975258922E-03
              -7.2573239511318300E-03
              -1.3435868712097499E-02
               1.2342281522444995E-03
              -5.6497409118385798E-04
               5.0970792338302044E-03
              -3.2178724665166900E-03
              -3.5982338056191033E-03
               2.4505119478827869E-01
               1.3525841438855933E-02
              -1.0659433964854919E-02
         &END THERMOSTAT_ENERGY
         &RNG_INIT
Wiener process for Thermostat # 1        1 F T T   3.7280401166127353E-01        2396824340.0        1285798124.0        1970812289.0        4262378425.0        2500496477.0        3105761546.0             12345.0             12345.0             12345.0             12345.0             12345.0             12345.0             12345.0             12345.0             12345.0             12345.0             12345.0             12345.0
Wiener process for Thermostat # 2        1 F T T  -2.8031459711754392E-01        1517340215.0         764337745.0        1777988352.0        1272471177.0        3093987526.0        2495380513.0        3692455944.0        1366884236.0        2968912127.0         335948734.0        4161675175.0         475798818.0        3692455944.0        1366884236.0        2968912127.0         335948734.0        4161675175.0         475798818.0
Wiener process for Thermostat # 3        1 F T T   7.0414863813957229E-01        1874984675.0        3540139467.0        3102430019.0        1608426380.0         643336117.0        1230365417.0        1015873554.0        1310354410.0        2249465273.0         994084013.0        2912484720.0        3876682925.0        1015873554.0        1310354410.0        2249465273.0         994084013.0        2912484720.0        3876682925.0
Wiener process for Thermostat # 4        1 F T T   2.2606224243119818E-01        3416187057.0        1637601412.0         393440280.0        2948182120.0        3407482107.0        2343296956.0        2338701263.0        1119171942.0        2570676563.0         317077452.0        3194180850.0         618832124.0        2338701263.0        1119171942.0        2570676563.0         317077452.0        3194180850.0         618832124.0
Wiener process for Thermostat # 5        1 F T T  -1.0267294306732384E+00         315072143.0        4137263975.0        4196656129.0        1282237791.0        3639735469.0        1937530485.0        1597262096.0        3906379055.0        3312112953.0        1016013135.0        4099474108.0         275305423.0        1597262096.0        3906379055.0        3312112953.0        1016013135.0        4099474108.0         275305423.0
Wiener process for Thermostat # 6        1 F T T   9.2624835653208748E-01        3222219212.0        3105331301.0        2094058484.0        2511776071.0        3719186732.0        3505559269.0          97147054.0        3131372450.0         829345164.0        3691032523.0        3006063034.0        4259826321.0          97147054.0        3131372450.0         829345164.0        3691032523.0        3006063034.0        4259826321.0
Wiener process for Thermostat # 7        1 F T T  -4.6721006089689310E-01        2921304001.0        3534845789.0         764942181.0        2980414860.0        2807768180.0         274774080.0         796079799.0        2105258207.0         955365076.0        2923159030.0        4116632677.0        3067683584.0         796079799.0        2105258207.0         955365076.0        2923159030.0        4116632677.0        3067683584.0
Wiener process for Thermostat # 8        1 F T T   4.8809173354813140E-01        3327178806.0        3682317356.0        2663069382.0         319044460.0        3975670735.0         562702070.0        3281794178.0        2616230133.0        1457051261.0        2762791137.0        2480527362.0        2282316169.0        3281794178.0        2616230133.0        1457051261.0        2762791137.0        2480527362.0        2282316169.0
Wiener process for Thermostat # 9        1 F T T  -8.1805399140306756E-01         433221438.0         349071730.0        2033385903.0        2639944804.0        3988392127.0        3801627598.0        3777646647.0        1837464056.0        4204654757.0         664239048.0        4190510072.0        2959195122.0        3777646647.0        1837464056.0        4204654757.0         664239048.0        4190510072.0        2959195122.0
Wiener process for Thermostat # 10       1 F T T  -2.7062828385550008E-01        2290601073.0        1666814614.0        3289919364.0        2930088785.0        1500929831.0        1860303943.0        4215590817.0        3862461878.0        1087200967.0        1544910132.0         936383720.0        1611370123.0        4215590817.0        3862461878.0        1087200967.0        1544910132.0         936383720.0        1611370123.0
Wiener process for Thermostat # 11       1 F T T   6.8652417552969780E-01        2151060734.0         580174056.0        1748210725.0         399674445.0        1879492130.0        2741776977.0        1683636369.0         362165168.0         814316280.0         869382050.0         980203903.0        2062101717.0        1683636369.0         362165168.0         814316280.0         869382050.0         980203903.0        2062101717.0
Wiener process for Thermostat # 12       1 F T T   1.2985463821691814E+00        3478492904.0        1830493925.0          17364685.0        2058676739.0        2676153401.0        4087350495.0         272317999.0         166758548.0         310112982.0         201045826.0        1680231254.0         118290799.0         272317999.0         166758548.0         310112982.0         201045826.0        1680231254.0         118290799.0
Wiener process for Thermostat # 13       1 F T T   2.0061703114922356E+00        2097018817.0        1300727704.0         367347443.0         582130443.0        2824054692.0        3111690587.0        2245755202.0        1652682525.0        2865544364.0         721509566.0         209733568.0         592362218.0        2245755202.0        1652682525.0        2865544364.0         721509566.0         209733568.0         592362218.0