 # Version information for this restart file 
 # current date 2023-12-13 20:26:48.506
 # current working dir /scratch/work/courses/CHEM-GA-2671-2023fa/students/hz2750/comp-lab-class-2023/Week12/Runs/Proton
 # Program compiled at                              Sat Dec 12 18:27:15 EST 2020
 # Program compiled on                                         cs001.nyu.cluster
 # Program compiled for                                                nyu-intel
 # Source code revision number                                       git:8c64c6e
 &GLOBAL
   PRINT_LEVEL  LOW
   PROJECT_NAME proton_aimd_1ns_every0.5fs
   RUN_TYPE  MD
   WALLTIME 21600
 &END GLOBAL
 &MOTION
   &GEO_OPT
     OPTIMIZER  BFGS
     MAX_ITER  100
     MAX_DR     3.0000000000000001E-03
     &BFGS
     &END BFGS
   &END GEO_OPT
   &MD
     ENSEMBLE  NVT
     STEPS  2000
     TIMESTEP     4.9999999999999994E-01
     STEP_START_VAL  1000
     TIME_START_VAL     4.9999999999999636E+02
     ECONS_START_VAL    -1.1018977433487325E+03
     TEMPERATURE     3.0000000000000000E+02
     &THERMOSTAT
       TYPE  GLE
       REGION  MASSIVE
       &GLE
         NDIM  5
         A_SCALE     1.0000000000000000E+00
         A_LIST     1.8595758612559999E+02    2.7263853498399998E-01    1.1526100454610001E+01   -3.6414578262600003E+01 \
             2.3173375816020001E+02
         A_LIST    -2.7809524712060002E-01    8.5951591808710006E-05    7.2189048017650004E-01   -1.9844539343859999E-01 \
             4.2409257583420001E-01
         A_LIST    -1.4825808131210000E+01   -7.2189048017650004E-01    1.3590902121280000E+00    5.1498896280349999E+00 \
            -9.9949268450990001E+00
         A_LIST    -1.0372189126880000E+01    1.9844539343859999E-01   -5.1498896280349999E+00    2.6661910891169999E+01 \
             1.1507715495310000E+01
         A_LIST     2.1801346360420001E+02   -4.2409257583420001E-01    9.9949268450990001E+00   -1.1507715495310000E+01 \
             3.0958394565589998E+02
         &THERMOSTAT_ENERGY
              -7.5884127797364324E-04
              -1.9261988295334184E-03
              -3.7957801042163598E-04
               6.0564698231088494E-03
              -7.0387059112990008E-03
               6.4956536227729136E-03
               1.3451490295432232E-03
              -9.3144910265504227E-03
               4.7760837871948878E-03
               2.5306659517953002E-03
               7.9460828040490324E-03
              -3.6970488380752950E-03
               6.1433686336661471E-03
              -3.9336635205743853E-03
               5.8741430877084612E-03
              -3.0023636490718107E-03
               1.6393903825922150E-03
              -5.3345313560411653E-03
               6.7865263305318521E-03
              -4.1852092226870056E-03
               1.9256316852608118E-03
               1.2445255192184523E-03
              -3.5519820157536523E-03
              -1.3896044905266644E-03
               1.9040314461215159E-04
               5.2244504590507708E-03
              -2.7915520589681347E-03
               3.2858270996800358E-03
               1.3305181724735640E-03
               2.2056762234466997E-03
              -5.5080144575581193E-03
              -1.0403838395042764E-03
              -1.3669921772692546E-03
               3.7872464358411405E-04
              -7.7318900974079055E-03
               9.8854589665197147E-03
               1.7790478536402509E-03
              -2.6532280466559362E-04
              -6.5986003058384510E-04
              -2.8946115003612304E-03
               8.6449444740863992E-04
               3.3103163677348493E-03
               2.3049996790523507E-03
               3.4612330298696842E-03
              -1.0286488734083962E-02
              -1.3142036141085376E-03
               9.8776374725676481E-03
               1.6465133994404877E-03
               1.6918451756383523E-02
               3.1359527084046136E-03
               1.7647861392657161E-02
              -2.9076897012223837E-03
               2.7298019389591324E-02
               1.2710337529188773E-02
              -4.9812314290674942E-03
              -1.0114776084831829E-03
              -2.0815525294104681E-03
               3.5638425512274879E-03
              -7.9693257290447384E-04
               3.8909970602317655E-03
              -5.9660583429732832E-04
              -1.0597357973555948E-03
               1.0183905198710657E-02
               1.4879166824390924E-03
               2.8205153646648786E-03
              -1.6413535825748023E-03
              -4.0577299240265562E-03
               3.2367076193346388E-03
               9.8387005154688695E-03
               2.3824554573277385E-03
              -1.0969527859200649E-03
              -5.0622663626356621E-03
              -1.0033313508176565E-03
               5.0356909353413684E-03
               7.2152056107900749E-04
              -1.3308914609963945E-02
               4.8488898244126513E-03
               1.4630857646333383E-02
               1.7557846548732509E-02
              -7.7474973367721994E-03
              -2.5336406084964236E-03
              -9.0597266204052993E-04
               1.1594398490444896E-03
              -9.2904495661983778E-04
               7.8932363917593590E-04
               6.5051055928098339E-03
              -2.6393899575441991E-03
               9.7270796122106060E-04
               3.6368988378524688E-03
              -2.1672387152548117E-04
               3.4475009161140102E-03
              -7.4873005024046974E-03
               4.1088191931705556E-03
              -5.0296638704237315E-03
              -9.3866228897486990E-03
               3.6920676081437357E-03
              -7.4112793323432714E-05
               2.8856802148399590E-03
               5.4452283958574457E-03
               7.7855614629483930E-03
               2.9809973167581518E-03
              -6.5718825873857531E-03
               2.5644682971743787E-03
               1.0182720078289759E-02
               3.8971530312071736E-03
               1.1370516904994349E-02
               1.6589953092313574E-02
               1.7115590989700901E-02
               3.6027864253875075E-03
              -5.1471468528261925E-03
               3.5442794751925745E-03
              -7.0259051875020823E-03
               9.1631741497422148E-03
               6.3842160218495732E-03
              -2.1069216028857165E-03
               6.3237185369669950E-03
              -1.7533978167522824E-02
               5.1151959273976174E-03
              -3.0500797191141272E-04
               4.5412394309150301E-03
               3.8769620963449874E-03
              -1.4007646960155975E-03
              -3.1242610772717282E-03
               4.4954977625141406E-03
               3.6832278828486330E-04
              -6.8282975114997294E-03
               3.1648244450452464E-03
              -1.3526202189513806E-03
               1.5394944595589558E-03
              -1.9297494058912546E-03
              -7.3262285465863341E-03
               4.4417591647011485E-03
              -3.2710575734773871E-03
               8.2480672438667926E-03
               4.7089070704477029E-04
              -3.4003918061972598E-04
              -8.4616331866945946E-04
              -6.1435960478819921E-03
               5.1743656592240011E-03
              -5.5802789536816538E-03
               8.0950123413006461E-03
               7.3991490219002609E-03
               8.4875899522713367E-03
              -6.9895397409662566E-03
              -2.2729461784807320E-03
              -6.0493371962164096E-03
               7.1607706058051945E-03
              -1.3863801783208461E-04
              -1.1723142418754841E-03
              -2.5727323615581379E-03
              -5.5126152711911939E-03
               9.7828996674818730E-03
              -1.5465203091876182E-03
              -9.9507914031536204E-04
               4.5329737281191987E-04
              -8.5516873493488238E-04
               5.9549987537470934E-04
               4.4410880472183552E-03
              -4.2587834156153645E-03
               6.9886477680143931E-03
              -2.5752351417113622E-03
               1.0995032321000173E-03
              -3.3166879676997203E-03
               9.0334133348255125E-04
               4.4170739541904060E-03
               5.3578978534644522E-03
               8.4825682603758494E-04
              -6.9997546543718227E-03
              -1.2541230963595655E-02
               5.0388255252446440E-03
               6.8180813030964916E-03
               1.1600536939421089E-03
               6.2668749961992580E-03
               8.0406518427049954E-03
              -1.2395958180568760E-02
               2.9685123478470285E-03
              -7.5798636760999582E-04
               2.5516517502340375E-01
               6.0466313854377333E-02
               1.6614447542378979E-02
              -1.2810443595679243E-03
              -1.0058331743714819E-05
               4.0062162023209256E-03
              -7.7994140359960284E-03
               9.0222330183306471E-03
              -4.9708629885350354E-03
               6.3353925662148732E-04
              -3.0340134834455357E-03
              -2.1808493920066991E-03
              -1.9520503859006618E-03
               3.5000567727604690E-03
              -3.1021438229901026E-03
              -2.2898848802909819E-03
               5.1560816754108894E-03
               7.1284608780543615E-03
              -1.0784063510632699E-03
              -9.5356399326105203E-03
               2.0111645208828874E-03
              -1.9160446440417574E-03
               8.9685640656204674E-04
               1.2878785600680942E-03
              -7.8091800338216180E-03
               1.2287876903668029E-02
              -2.3376321785582143E-03
              -3.0747979533672339E-03
              -2.2236814927137816E-03
               3.6205762861095728E-04
               1.0666582916863247E-03
               2.7252535859618736E-03
               4.3247825675799580E-03
               3.6532345820732763E-03
               5.2206255267158916E-04
               3.6407415355703596E-03
              -1.0706767302322021E-02
               7.3921493484954681E-04
               3.8230842371638012E-03
              -3.3773446635970623E-03
               9.2002312166846820E-03
              -9.3571907369170357E-04
               5.2205623896526537E-03
               9.2829199290195303E-03
               9.2490654149443643E-03
               9.7257762750937379E-03
              -1.4023968689634428E-03
              -7.5981420196129940E-03
               1.6377222642232046E-03
               2.3233194914252771E-04
               3.3216533200199089E-03
               3.6227484432051682E-03
               3.9758526578374254E-03
              -2.6679250618534692E-03
               5.0978961266318016E-03
               8.3840595110927472E-03
              -3.3731192647221231E-03
               4.6241345069629120E-03
               8.8977899808716796E-04
              -2.4829568752865183E-03
              -3.0980206551531938E-04
               1.0978553386772057E-02
              -1.6787602109948036E-04
              -4.0968030940875474E-04
              -6.7187590645829106E-03
               1.0463754944097191E-03
               5.4730654464900982E-04
              -1.2900625404278661E-03
               3.3159896598401041E-03
               7.7262189262473895E-03
              -4.0026337000064853E-03
               1.0698304953592223E-03
              -7.6649241716925966E-04
              -1.1994252872969480E-03
               7.5205668409087149E-04
              -7.1517256372495589E-03
              -7.5690236028950390E-04
               1.4940610172873458E-04
              -1.5497817251294696E-03
               1.0043393416783803E-02
              -3.3103197256068805E-03
               3.2560167092864577E-03
              -1.3638119912799382E-02
               9.9092040160250472E-03
              -1.8387624480157064E-03
               2.8481890498789032E-03
               5.7369854451128468E-03
               2.0415776673962682E-03
              -6.1171495324745875E-03
               6.4798979463120262E-03
               4.0041401719929121E-02
               7.4798887820031459E-03
               3.1283913432510226E-02
              -4.3681991033845888E-03
              -3.4811401291593878E-03
               2.5993917452706845E-03
               6.7047748392958283E-03
               3.6159552621628003E-03
               2.9111128664696547E-03
              -2.0889547724597064E-02
               9.8288540221570086E-03
               8.9479336847274739E-04
               1.4857005847471944E-03
              -7.1648092836549778E-04
               5.5756991060534880E-03
               3.1979218448879914E-03
              -1.6202235352911092E-03
              -4.6437799552848632E-03
               9.0193170625324608E-03
              -1.8924728655760974E-03
              -2.9213621648322211E-03
              -1.8303115628035037E-04
              -2.4125558809448434E-03
              -8.9984467405232265E-04
               3.6305553088557354E-03
               1.5646733876515564E-03
               2.3878781027287656E-03
              -1.7206239701121834E-03
               3.4781263096629487E-03
              -9.9376123411032392E-04
              -2.8592229867577213E-04
              -2.1324744223999922E-03
               8.6226542409285380E-04
              -2.9145181630610317E-03
               8.1413222983820650E-03
               3.5415873512388636E-03
               4.9065655022106306E-04
               3.7744729438505620E-03
              -9.6572101556552103E-03
               3.5470096663692717E-03
               2.3591907491859790E-03
              -5.8358045995040107E-03
               8.0958389045503367E-03
              -5.8633390057017483E-04
              -7.7844007948333791E-03
               3.0475587523496085E-03
               7.3022145141983675E-03
               7.1010513493954498E-03
               3.6322637307001455E-03
              -1.4109683658658501E-03
               5.1788889905837699E-03
              -6.9051086131831981E-04
              -3.4854798944271605E-03
               4.5582804780677057E-03
              -8.0172744756786297E-03
              -6.5949519584439032E-03
               1.0884780234387277E-02
              -3.5153604263869756E-03
               1.8136751629075547E-03
               1.9521945393569404E-03
               2.7301898278948057E-03
               7.1154310751487973E-04
               1.5133223793577241E-04
               8.2775953837468442E-04
              -8.0355040823409645E-03
               8.6154552363524577E-03
              -4.6279005451619745E-03
               3.9115542619356245E-03
              -3.2371250750114103E-04
               1.8722774788796567E-02
               1.5965430753513920E-03
              -1.4143391328644324E-02
               7.0748662212405953E-03
               7.2539312129167033E-03
              -7.2785529423298240E-04
               1.9037122929824253E-03
              -9.4095366800924071E-04
              -7.2958876057571762E-04
              -7.7419112442603842E-03
               2.0601999641220261E-03
              -4.3552081662932129E-03
              -2.4858081939996448E-03
              -1.8505562153422884E-03
               2.7792840087803258E-03
               2.6117559751129131E-03
              -4.7973437238909584E-03
               1.7782418439431776E-03
              -6.6608190441804346E-03
               1.1773155316527234E-02
              -1.1416518197671075E-03
              -1.4594463474307149E-03
              -3.9007684008917081E-03
               1.1380301548081275E-02
              -9.8871536477478008E-04
               5.3450630954599530E-03
              -4.6389541914850776E-03
              -6.8819409986174045E-03
              -1.7869245617763803E-04
               1.6393228398162481E-02
               5.0906832428018580E-03
              -4.1673435512840362E-03
               1.3217492425024523E-02
               7.7227085475980199E-03
               3.9936282210686494E-03
              -7.4778614272068764E-03
               9.4836161088944510E-03
              -1.9587023122363259E-03
               9.4145984237929605E-03
              -1.4222653936682419E-02
               1.5464483946755959E-02
              -4.2058045093560812E-03
              -1.8256985792945569E-03
               7.2589406119980254E-04
               1.2090834618554993E-03
               3.2634237570971347E-03
               1.2239050159880364E-02
               1.0251332040280624E-03
              -1.4088311007155569E-02
               9.5600671213590897E-03
              -2.1178925713799847E-03
              -4.5450530734147789E-03
              -1.0394214744668276E-03
              -1.2497399744214625E-03
              -9.0926122345747675E-03
               1.0483373067128078E-02
               3.3951848963441501E-04
              -2.2611624659703905E-03
               6.8489423656539457E-04
              -1.2230943876575290E-03
              -2.1815545946218496E-03
              -3.2136651672822624E-03
              -7.2495409835241637E-04
              -9.7184658163094028E-03
               1.1576751677763264E-03
               1.0106288199529250E-02
              -8.6725689283758869E-03
               8.7894236322512021E-03
               5.0856818442998209E-03
               1.7960574369066855E-03
               6.6343896149946059E-04
               4.3386160763308158E-03
              -8.2799082445213328E-03
              -4.0022711507476418E-03
               4.8179318917007810E-03
               3.3441089717252954E-03
              -2.1490039294591334E-03
               4.8397976403533934E-03
              -3.7237345760516797E-03
              -3.9553004892426136E-03
               1.1305337927387069E-03
              -5.9876400188204251E-03
              -4.1164620712386812E-03
               1.0779553131259865E-02
              -7.3529765752936667E-03
               7.7091651098735959E-05
               7.8162547676761760E-03
               3.6776836551384957E-03
              -2.0111928057792337E-04
               1.4073303075527693E-03
              -9.1132640646178469E-03
               5.8730543147745944E-03
              -4.6220800608040239E-03
              -9.3624923032095859E-04
               1.1622072892509107E-02
              -5.3346582758372549E-03
               8.5826599401615702E-04
              -1.9384090171460389E-04
               1.8383640783335366E-03
              -1.1601202378944693E-02
              -3.4288081416406187E-03
               1.0344424264101431E-02
               7.0317719565598045E-03
               6.1781149824744206E-03
              -5.7623946843246869E-03
              -5.4873509113782960E-03
              -5.0864039279283134E-04
               6.3947674473600570E-03
               5.9106338469580621E-04
              -5.6383187360522216E-03
               6.4959470515813193E-03
               1.4153266943004639E-03
               5.9384471748845057E-03
               1.8941920340486383E-03
               3.6655049361653338E-04
              -2.4449416015102600E-03
               7.9151723992545112E-03
              -4.3235411853341597E-03
              -7.5447401669812165E-03
              -2.2311486056786687E-03
               9.5560826522024453E-03
               1.0735816053324709E-03
              -6.9649729461085377E-03
              -1.8932321397994297E-03
               5.7971801662505609E-03
              -4.5356284974363706E-03
              -1.1432807629199692E-03
              -7.6436692869932365E-04
               8.8496837222078652E-03
               6.0668222466554169E-03
              -5.9684740490380086E-03
              -2.4558650641584561E-03
              -1.4030040432290694E-03
               4.5695652270577860E-03
               1.9453955308103305E-03
               1.1295620516939116E-02
              -5.8429669143097059E-03
              -3.2023239502074041E-03
               4.7888650111822572E-03
               3.5286005461746660E-03
              -1.3568406268249732E-03
               4.6926495529409692E-03
              -9.9938319858232003E-04
               3.1880940334448856E-03
              -1.1102879842010678E-02
              -3.0704682321904225E-04
               3.4406438813156534E-03
               1.2282777587579747E-03
               8.6710019492790692E-04
               2.4675252401813149E-03
              -3.9225395446615581E-03
              -2.4109413063413696E-03
              -5.4857067034820173E-03
               5.1064589093597016E-03
              -1.1549152387017004E-02
               1.1725405600859719E-02
              -7.0838976218213622E-03
               4.5360773866713819E-03
              -9.1082809557816954E-04
               4.9607549665634642E-03
               1.0736493739999860E-03
               1.2902150211355078E-03
               3.8860830209366593E-03
               2.9998949261874257E-03
               7.9457515265999971E-03
              -3.4413725931449553E-03
              -9.1077656186136606E-03
              -2.7403864670107036E-03
               1.7318582308248058E-03
              -1.7649936089295202E-03
               5.8537011562964673E-03
              -1.9386813722797474E-03
               6.7336913779996090E-03
               3.2341356058569470E-03
              -1.2664862411146524E-03
               1.2731157799245453E-02
              -1.2986672623317956E-02
               1.2306720348578015E-03
               1.0888592486122089E-03
               4.8992751118259259E-04
              -9.0380699240412525E-03
               4.8444158916789576E-03
               2.0035258360028524E-03
              -1.2924230214232449E-03
               8.6439127740370811E-03
              -1.1021268822992128E-02
              -4.8396074034778918E-03
               5.6070516343839846E-03
               3.0633453646301541E-03
              -4.9200867230214905E-03
              -5.3819068624269351E-03
               3.5800942775985754E-04
               4.3782697645995579E-03
              -1.9365958447844275E-04
              -7.9368530829452104E-03
               6.5782697482821709E-04
              -2.8514922193981422E-03
              -9.8882177633384733E-05
               5.7155496586483385E-03
               4.2288945196057807E-03
              -3.3788569440705370E-03
              -1.1830023188030378E-03
              -1.3455550521957181E-02
              -5.6399369979046336E-04
              -2.6263449488396085E-03
              -3.5525945010848959E-03
              -7.4933248093457198E-03
               3.8175485801519105E-03
              -8.3217825912454901E-04
               1.3144906111311801E-02
               7.9058123729276349E-03
               1.0614839379442895E-02
              -1.3418771194848611E-02
              -3.0556515193705348E-03
              -4.5852079342626948E-04
              -7.1248398017980290E-03
              -2.5360636101501811E-03
               6.2079105546133831E-04
               1.2200136910501985E-02
              -1.0126679842872128E-02
               6.6174562925623301E-03
               3.7911114428729998E-03
               5.1809603147080791E-03
               3.7126954571887146E-03
              -1.2473142122425577E-03
              -3.5541080831162954E-03
               8.0099085408477969E-04
               8.0306680675295145E-03
              -7.0666485120085701E-03
               9.1905145011872726E-03
              -2.1124305248784486E-04
               6.6686363689247991E-04
              -2.3629419999554985E-03
              -3.7860779853816752E-03
              -7.4335257193043616E-03
               1.3717625300630888E-03
               1.1023234401108658E-02
               4.9489190504177320E-03
              -3.8713409407472436E-03
               2.3294061437411540E-03
               2.3585298120301237E-01
               1.2791819818628175E-02
              -1.5070363220115431E-03
         &END THERMOSTAT_ENERGY
         &RNG_INIT
Wiener process for Thermostat # 1        1 F T T  -9.8236738167888460E-01         226733040.0        4248387519.0        1164353849.0        2758509449.0        3644127687.0        1764793484.0             12345.0             12345.0             12345.0             12345.0             12345.0             12345.0             12345.0             12345.0             12345.0             12345.0             12345.0             12345.0
Wiener process for Thermostat # 2        1 F T T  -1.4171306107827426E+00        1528154308.0        2775625301.0         197130159.0        1452211673.0        1835562137.0        1983376171.0        3692455944.0        1366884236.0        2968912127.0         335948734.0        4161675175.0         475798818.0        3692455944.0        1366884236.0        2968912127.0         335948734.0        4161675175.0         475798818.0
Wiener process for Thermostat # 3        1 F T T   8.6049543281786645E-01        2248570378.0        1724762616.0          52903713.0        3229622658.0        3199004837.0        4241126217.0        1015873554.0        1310354410.0        2249465273.0         994084013.0        2912484720.0        3876682925.0        1015873554.0        1310354410.0        2249465273.0         994084013.0        2912484720.0        3876682925.0
Wiener process for Thermostat # 4        1 F T T  -1.5460863137690717E+00         957380376.0         510326667.0        2247033635.0        2033071685.0        3054261466.0        3462352516.0        2338701263.0        1119171942.0        2570676563.0         317077452.0        3194180850.0         618832124.0        2338701263.0        1119171942.0        2570676563.0         317077452.0        3194180850.0         618832124.0
Wiener process for Thermostat # 5        1 F T T   1.5428690481661575E-01        4203301200.0         738999836.0        1485820986.0          20648636.0        2223680357.0        4294941489.0        1597262096.0        3906379055.0        3312112953.0        1016013135.0        4099474108.0         275305423.0        1597262096.0        3906379055.0        3312112953.0        1016013135.0        4099474108.0         275305423.0
Wiener process for Thermostat # 6        1 F T T   7.0411917217518150E-01        1265311014.0        3687607523.0        1792102642.0         142025920.0         459804801.0        1211121065.0          97147054.0        3131372450.0         829345164.0        3691032523.0        3006063034.0        4259826321.0          97147054.0        3131372450.0         829345164.0        3691032523.0        3006063034.0        4259826321.0
Wiener process for Thermostat # 7        1 F T T  -9.5744195640119531E-02        4040223344.0        4246262317.0         329086624.0          28777921.0        2946509694.0        1489700490.0         796079799.0        2105258207.0         955365076.0        2923159030.0        4116632677.0        3067683584.0         796079799.0        2105258207.0         955365076.0        2923159030.0        4116632677.0        3067683584.0
Wiener process for Thermostat # 8        1 F T T  -1.2413826789147817E-01         252045112.0        2848200345.0         154646410.0        1271924195.0        1873079261.0        3351978939.0        3281794178.0        2616230133.0        1457051261.0        2762791137.0        2480527362.0        2282316169.0        3281794178.0        2616230133.0        1457051261.0        2762791137.0        2480527362.0        2282316169.0
Wiener process for Thermostat # 9        1 F T T   1.0331244080464512E+00        3784506675.0        1914172684.0        3527875272.0        1610827989.0        3855196701.0        1117597481.0        3777646647.0        1837464056.0        4204654757.0         664239048.0        4190510072.0        2959195122.0        3777646647.0        1837464056.0        4204654757.0         664239048.0        4190510072.0        2959195122.0
Wiener process for Thermostat # 10       1 F T T   2.1466585360569199E-01        3057685686.0        2869029583.0         411221469.0        2821893460.0         322924656.0        1143227575.0        4215590817.0        3862461878.0        1087200967.0        1544910132.0         936383720.0        1611370123.0        4215590817.0        3862461878.0        1087200967.0        1544910132.0         936383720.0        1611370123.0
Wiener process for Thermostat # 11       1 F T T  -4.4132046785776799E-02        1554543736.0        2717576499.0        4135075403.0        2618383353.0         642871762.0         249586537.0        1683636369.0         362165168.0         814316280.0         869382050.0         980203903.0        2062101717.0        1683636369.0         362165168.0         814316280.0         869382050.0         980203903.0        2062101717.0
Wiener process for Thermostat # 12       1 F T T  -5.6161533877704317E-01        1770324141.0        3770017049.0         190859559.0         764828178.0        2918138424.0         736540625.0         272317999.0         166758548.0         310112982.0         201045826.0        1680231254.0         118290799.0         272317999.0         166758548.0         310112982.0         201045826.0        1680231254.0         118290799.0
Wiener process for Thermostat # 13       1 F T T   9.7554409384929153E-01        3627045108.0        1898589428.0        2752141753.0          85759421.0        2499273175.0        1137986601.0        2245755202.0        1652682525.0        2865544364.0         721509566.0         209733568.0         592362218.0        2245755202.0        1652682525.0        2865544364.0         721509566.0         209733568.0         592362218.0