 # Version information for this restart file 
 # current date 2023-12-13 22:34:29.437
 # current working dir /scratch/work/courses/CHEM-GA-2671-2023fa/students/hz2750/comp-lab-class-2023/Week12/Runs/Proton
 # Program compiled at                              Sat Dec 12 18:27:15 EST 2020
 # Program compiled on                                         cs001.nyu.cluster
 # Program compiled for                                                nyu-intel
 # Source code revision number                                       git:8c64c6e
 &GLOBAL
   PRINT_LEVEL  LOW
   PROJECT_NAME proton_aimd_1ns_every0.5fs
   RUN_TYPE  MD
   WALLTIME 21600
 &END GLOBAL
 &MOTION
   &GEO_OPT
     OPTIMIZER  BFGS
     MAX_ITER  100
     MAX_DR     3.0000000000000001E-03
     &BFGS
     &END BFGS
   &END GEO_OPT
   &MD
     ENSEMBLE  NVT
     STEPS  2000
     TIMESTEP     4.9999999999999994E-01
     STEP_START_VAL  1998
     TIME_START_VAL     9.9899999999998238E+02
     ECONS_START_VAL    -1.1018977433487325E+03
     TEMPERATURE     3.0000000000000000E+02
     &THERMOSTAT
       TYPE  GLE
       REGION  MASSIVE
       &GLE
         NDIM  5
         A_SCALE     1.0000000000000000E+00
         A_LIST     1.8595758612559999E+02    2.7263853498399998E-01    1.1526100454610001E+01   -3.6414578262600003E+01 \
             2.3173375816020001E+02
         A_LIST    -2.7809524712060002E-01    8.5951591808710006E-05    7.2189048017650004E-01   -1.9844539343859999E-01 \
             4.2409257583420001E-01
         A_LIST    -1.4825808131210000E+01   -7.2189048017650004E-01    1.3590902121280000E+00    5.1498896280349999E+00 \
            -9.9949268450990001E+00
         A_LIST    -1.0372189126880000E+01    1.9844539343859999E-01   -5.1498896280349999E+00    2.6661910891169999E+01 \
             1.1507715495310000E+01
         A_LIST     2.1801346360420001E+02   -4.2409257583420001E-01    9.9949268450990001E+00   -1.1507715495310000E+01 \
             3.0958394565589998E+02
         &THERMOSTAT_ENERGY
               1.4559856911172209E-06
              -3.4394126109389051E-03
               3.2391325680446230E-06
               4.0788971004965188E-03
              -1.1454892659513279E-02
               6.4229405939664570E-03
              -5.9252209250065871E-03
              -6.7061947839570949E-03
               1.1377137729553483E-02
               2.7576507641520268E-03
               9.1870198146314329E-03
              -2.3853896292493149E-04
               3.8520715176171339E-03
              -1.1414115649816908E-02
               1.8746153846550774E-03
               6.6135722921267749E-04
              -5.3073222933829982E-03
              -6.1168080124985170E-04
               3.3718617007054553E-03
              -3.9714428358712849E-03
               1.2413855758761048E-03
               1.3009174448990017E-02
              -1.0199256664006739E-02
              -1.3168546289465297E-02
               1.0008601600407537E-02
               7.1666814680595350E-03
              -3.0254978751432908E-04
               2.7665316840659593E-03
              -6.5863299816650575E-04
               8.3635559494585603E-03
              -1.8053547876488161E-04
              -7.4049391953864415E-03
              -4.4467322197705743E-03
              -1.5935110663074757E-03
              -6.8678213115599806E-03
               1.1066424744958340E-02
               1.9769176832530717E-03
              -2.0919251759478679E-03
              -8.6894012294550394E-04
              -4.0415785040727311E-03
               1.2239352183982706E-02
              -6.6640282862102567E-03
               3.0370370375082151E-03
               5.9781678329387730E-03
              -6.9078488818318066E-03
               2.3607220605726710E-03
               6.3314394789989129E-03
              -1.4778292398178434E-04
               1.3185954226846302E-02
               1.0479347489608052E-02
               2.0029018313288065E-02
               7.7190616586353367E-04
               2.2486746232562017E-02
               1.8275150160867559E-02
              -9.1295357314635905E-03
              -7.4055962297632288E-04
              -1.9417989942611983E-03
               1.5328885425108958E-03
               4.1214895885515780E-03
               4.2863572987028985E-03
              -1.4501604183423877E-03
              -2.2293288612003264E-03
               1.0858530416143252E-02
              -3.2557174776317319E-03
               6.0141597991978249E-03
              -2.7441625853283466E-03
              -6.5733762159585355E-03
               9.9811114316772035E-03
               1.9360306229304580E-02
               6.5401431292897469E-04
              -7.2638723082514975E-03
              -7.3735010517927283E-03
              -1.2743336863460233E-03
               3.3716072076516719E-03
              -2.7529340088438721E-03
              -2.1303030609876577E-02
              -1.8934031962568338E-03
               2.6870064175063400E-02
               2.0112071365613073E-02
              -6.9582753526506551E-03
              -7.6316588449081685E-04
              -3.4676830586375844E-03
               2.8969980839985009E-03
              -1.9653681619446368E-03
              -2.9725488078959817E-03
               1.3728013749520490E-02
              -5.9590811637690606E-03
              -1.2172962359506300E-02
               7.1949508953523247E-03
               4.1813433361025795E-03
              -4.4678887504263753E-03
              -7.5418109982906345E-03
               3.1518553035623947E-03
              -7.7065605552039821E-03
              -6.3617574457822757E-03
              -5.9838352615869152E-03
               7.9630135991710007E-03
              -5.5871663313159089E-04
               1.6061489994997107E-02
               7.7464048758450780E-03
               6.3732213375586877E-03
              -3.4231939715728727E-03
               1.3485236137120420E-03
               7.7452637136327046E-03
              -1.0811496706725611E-02
               7.3649187966555174E-03
               1.8833073259121244E-02
               2.7903285289046398E-02
               4.3234140955636753E-03
              -6.5335510152297353E-03
               1.7768329636343855E-03
               8.3401328767526393E-03
               7.5739865026535251E-03
               2.9037871003403707E-03
              -4.7790678183432965E-03
               8.2555481714257782E-04
              -1.3518276617781629E-02
               1.3530145018614949E-03
               4.1447150245039139E-03
               5.6237791433636254E-03
               1.2016329954348255E-03
               4.4329278238441428E-03
              -3.8384653080185144E-03
               1.8339409078184702E-04
               1.9359553454014033E-03
               1.9062186753351690E-04
               1.0789982740772175E-02
               8.8095822807127524E-04
              -2.4877905994069357E-03
               8.5783853311784779E-03
              -1.1578298994141027E-02
               3.1215847210012678E-04
              -5.2719451582350042E-03
               1.2341736524277969E-04
              -7.6589587756716938E-04
              -1.1718377144908680E-03
              -5.6072918210093572E-04
              -1.0833528719648315E-02
               2.8816519743528929E-03
              -1.0567224436048655E-03
              -1.4847539237245601E-03
               8.7056569751854367E-03
               1.1014024205479728E-02
              -7.3417180643232504E-03
              -6.4287339911290697E-04
              -2.0670293193840840E-03
               5.1945585153614950E-03
               1.1643315061650884E-03
              -7.3711641309407014E-03
               5.7467936165649684E-03
              -1.5029665494069974E-02
               1.3231919849085685E-02
               1.3348246214971329E-03
              -1.1966595598014121E-04
               1.8995844478215051E-04
              -5.6708226423915322E-03
               9.0143953278627416E-04
               8.1997730204208530E-03
               4.1342765773044248E-03
               2.5374153858490098E-03
              -2.2870277898839123E-03
               1.3075979772894448E-02
              -1.6837876864227268E-03
               3.6483010301793656E-03
               6.9612792640126406E-03
               1.5778780648256788E-02
               3.6448425696498760E-03
              -2.8454548607440913E-02
              -5.6274594877488678E-03
               3.9630161105726897E-03
               5.5401246270892195E-05
               4.7263258207404860E-03
               1.3643345683713164E-02
               1.5571977258538967E-03
              -1.7413507414541608E-02
               2.0474309056939835E-04
               9.0034024311733581E-03
               2.6135093628594674E-01
               6.6268935112451410E-02
               8.9259568416390246E-03
              -3.5014740668554037E-05
              -1.1263092912559114E-03
               4.7456954521820334E-03
              -2.5748550426001496E-02
               2.3955702856054927E-02
              -8.8835008500741961E-04
              -3.4760486249758464E-04
              -8.4710942636863854E-03
              -7.0966975598788784E-03
              -1.9620501677195135E-03
               5.2940543859690010E-03
              -1.8092173544781650E-03
              -3.1168079453276131E-03
               8.8923583315842492E-03
               1.2289499963016421E-02
              -4.1251978593082519E-03
              -1.9671527562540939E-02
               4.7067734608243483E-03
              -5.6535740862148961E-03
              -5.9652572275384395E-04
               2.0897024849760022E-03
              -3.2344198829539332E-03
               1.4996544731856800E-02
              -5.9319961110196199E-04
              -8.8120432489367153E-03
               2.4301404220155635E-03
               2.2229715668113008E-05
              -5.8687248542735595E-03
               4.7848798617235481E-04
               2.7720862928857699E-03
               4.9249876899180242E-03
              -3.9983515683429801E-03
               1.3664624415252012E-02
              -5.0979619506718830E-03
               9.3636834089717361E-03
              -5.5734828144116625E-03
              -7.4555952563644858E-03
               1.3480890228400880E-02
              -2.7079843418039004E-03
              -2.3873412915077647E-04
               4.5143363397643571E-03
               1.4208145541436259E-02
               4.6429580477789795E-03
               3.0429870567578380E-04
               5.1249146328612258E-04
               3.7269463316127534E-03
               9.3535796018937359E-04
               3.5327594858828998E-03
               4.7945143042743537E-03
               4.7266386517053451E-03
              -2.4970809242719689E-03
               9.8964696053348484E-04
               1.4529059781099390E-02
              -4.0325910936565013E-03
               3.0934679557457156E-03
              -7.8288422266741274E-05
              -3.0396518143343816E-03
               3.1474327593097862E-04
               1.1869841975778977E-02
               9.9943556635025479E-03
              -2.6847474371965805E-03
              -3.3165293983264173E-03
              -5.6082646738729149E-03
              -3.2834583126392005E-03
              -6.6978150417955156E-04
               7.2598555363705920E-03
               1.1664388439870613E-02
               1.0346365129448244E-03
              -3.1549302991478521E-03
              -2.7385010890377929E-04
              -7.3991640257238516E-03
              -7.0354310943086936E-03
              -8.6991738360810544E-03
              -1.5033965890641635E-03
               1.2158754227786844E-03
               3.1371899111235567E-03
               9.0086578401042464E-03
              -6.7944155861730986E-03
               1.8918318552461216E-02
              -2.0617057940017239E-02
               1.7788123723927757E-02
               8.7485471761039411E-03
               3.3035391280819906E-03
               2.5842845448550752E-03
              -3.2342262182770581E-03
              -7.7254038197887356E-03
               1.8444427857629141E-02
               4.8386023127630427E-02
               1.0648305955693734E-03
               3.6578356230470684E-02
              -3.4796957058169297E-03
              -4.1864506550839762E-03
              -1.9187891557863877E-03
               1.2281617233167770E-02
              -4.2815131552533196E-03
              -4.9027138199308519E-04
              -2.7002353206561212E-02
               2.0302066801236768E-02
              -3.1242866411433550E-03
               4.9971140610111453E-03
              -4.1826325865447229E-03
               6.5974036194913930E-03
              -2.0789404030524374E-03
              -3.0399863494840629E-03
              -4.1322945222780870E-03
               1.0524295283895587E-02
              -3.2387956279446039E-03
              -2.6934374483376833E-03
              -3.5666591689441237E-03
              -2.3412284383289805E-04
              -3.2435389170496847E-03
               1.5537460627209421E-02
              -1.4887311973269415E-02
               2.5908701391350567E-03
              -3.0392810052258919E-04
               6.6790501780845373E-03
              -8.4369422632158131E-03
               6.8203006044655306E-04
               2.8208585815972321E-03
              -3.3540084703401352E-03
               1.0565143199097592E-03
               1.1839101085109679E-02
               5.9821313799059772E-03
              -1.2535549090586238E-03
               6.2396708969053947E-03
              -1.4401626702212598E-02
               1.7625346895522173E-03
               8.6909665795506848E-03
              -9.5929551936586796E-03
               6.5941051909694081E-03
               4.1009077210397999E-03
              -1.4102878426611924E-02
              -2.9560234385613937E-03
               1.3032006452604371E-02
               3.9978070355555992E-03
               4.4468972337201578E-03
              -2.2452507849314522E-03
               5.6596846519737032E-03
              -1.9423176039761287E-03
              -1.0710520476292114E-03
               9.3403065296744150E-03
              -1.3513610570610780E-02
              -5.8049616910209297E-03
               1.2069846638521856E-02
              -6.2097345449523660E-03
               2.6125025821201252E-03
               1.9778240990193951E-03
               3.9149563823734678E-03
              -2.3151855698422563E-03
               8.0552836153513462E-03
               3.3327225204442838E-03
              -6.1309781053752385E-03
               5.8410803548338518E-03
              -4.2193708384213836E-03
              -4.5805060514223818E-04
               4.4840632170816330E-04
               1.3637921506596923E-02
               8.6897946983970180E-03
              -1.7993413724824180E-02
               1.5450513913049843E-02
               3.5220902545504739E-03
               3.6592584920859591E-03
               2.7797404611091506E-04
              -5.1032437691079010E-03
              -1.6183722797829018E-03
               2.8799142003916130E-04
              -4.5832263771671163E-03
              -4.1647975120627833E-03
              -4.0729645578180463E-04
               2.2970762957189184E-03
               4.7703412555839273E-03
               3.0831056408582584E-03
              -7.8658027433685766E-03
               2.2011076444705597E-03
              -1.1298971056505786E-02
               1.6295470175250761E-02
               4.2493134276373754E-03
              -1.1529981344590509E-02
              -1.2011093912752265E-02
               1.8134599676041079E-02
              -1.7727485675580997E-03
               3.5580396882206123E-03
              -5.2389703202700439E-03
              -4.4169424670001045E-03
               3.0403288157103687E-03
               1.1528478153724554E-02
               8.0150540184914260E-03
               6.3108457043783961E-04
               1.0981285077221870E-02
               5.2329612812955298E-03
               5.5938693069123302E-03
              -1.0454530670843572E-02
               1.2992443023641890E-02
              -2.0001472600333905E-03
               8.5464080892170679E-03
              -9.5966455759684596E-03
               1.0219356536486039E-02
              -1.4320199477707846E-02
              -1.4214947498249458E-03
               2.1364646065928777E-03
               9.4794006939057929E-03
               7.4185536226876337E-03
               1.7902873864785708E-02
              -9.9001869793630248E-03
              -1.7113869856118562E-02
               1.2395180304601390E-02
              -7.6658532862412167E-03
              -4.0577940484169276E-03
              -3.5386034013029114E-03
              -1.3279439257921953E-03
              -9.3238195616825552E-03
               1.2628457077223465E-02
               5.5414800195923942E-03
              -1.3989348702047214E-02
               8.2978189110256822E-03
              -3.5835403126098216E-04
              -8.2794278383615267E-03
              -3.1397168978779962E-03
               3.7915687554932577E-03
              -2.2525440749672644E-02
               1.2428577968056638E-03
               1.0925809809561478E-02
              -5.6886673872613095E-03
               5.2459771333926934E-03
               1.4180865310178778E-02
              -4.3739069626498308E-03
               2.8185773406159478E-03
               2.5247239294987640E-03
              -1.0073328413820054E-02
              -1.2318730851124796E-03
               7.6738599633966401E-03
               9.2427916478239804E-03
              -7.1010624292785198E-03
               8.0880895435363562E-03
              -1.8183039198021616E-03
              -3.0437266221667030E-04
               3.4991047503363649E-03
              -8.9593317928049684E-03
               3.6911752492291201E-03
               1.2960736820904987E-03
              -4.7291482112508856E-03
              -6.8794289290861760E-03
               1.8943372623150348E-03
               1.1770190956982018E-03
               4.0819301868497736E-03
               2.8333737434089717E-03
              -5.4433967234816917E-03
               8.2547302667333976E-03
              -8.8849785589925189E-03
               3.3865418671815090E-04
               8.2662131037364809E-03
              -8.0235713647852716E-03
              -4.6460403210684612E-04
              -2.2953867583227709E-03
               3.4150717034078528E-03
              -1.5779430578782117E-02
              -7.8416800855468979E-03
               1.4582265280807317E-02
               8.2845807157701963E-03
               4.5047286643090734E-03
              -4.4777651910709541E-04
              -1.4534898083494742E-02
              -3.5726781076127526E-03
               6.6265360765727886E-03
              -6.9293758407034962E-03
              -6.4950952410220862E-03
               1.0436216090928119E-02
               4.0971652556209028E-03
               1.3163185033496195E-02
              -3.9968335734169216E-03
              -4.8348130170079273E-04
              -1.8687662488658106E-03
               1.0393458825526608E-02
              -9.1973792133126725E-04
              -4.2821280438489102E-03
              -9.8982182001974301E-03
               1.4484265299284213E-02
               5.5722626330894920E-03
              -1.0295814185093283E-02
               6.2723887645041616E-03
               3.6824069164565301E-03
              -1.5416635782430142E-03
              -1.5970270317120562E-03
               6.4294933148495931E-03
               8.4363937321904371E-03
               8.6481593934457108E-03
              -1.9503741684712739E-02
              -2.0989451958460971E-04
               1.7088735389348248E-03
               1.5777330366422614E-02
               1.1000534247718619E-04
               4.0452602191377255E-03
              -4.5527506167408922E-03
              -4.1768706082667200E-03
              -8.4666079460302256E-03
               7.4218038047955759E-03
              -3.1630459153969889E-03
               1.1209063712243432E-03
               9.4022457919277005E-04
              -2.8243487531919183E-04
              -5.2744332204767014E-03
               3.0914365298222268E-03
               1.2476727975597865E-03
               1.0599712278493253E-02
              -1.1295677636364522E-02
               3.8704790884132871E-03
              -3.5412367627449177E-03
              -2.1644706774020428E-03
              -9.5854594552432278E-03
               8.0145350907562675E-04
              -1.9410600459761600E-02
               2.0276132918081578E-02
               4.2707101659003642E-03
               9.5558700332335801E-03
              -6.2404472959997565E-03
               1.1519373245496772E-02
              -5.3352081403241190E-05
               1.7301636995341748E-03
               7.2247402528954965E-03
               8.3757626324103829E-03
               8.1831594021763033E-03
              -5.1820424079149722E-03
              -2.0301453149784501E-02
              -3.8358606288226849E-03
               8.5958325482222882E-03
              -7.0425828370056977E-03
               7.7493773090427237E-03
              -5.6586721937201189E-03
               7.1607317738410156E-03
               2.0711483877548804E-03
              -6.6096460846422189E-03
               1.6136393930686263E-02
              -6.1595716802961857E-03
               6.5953967550385197E-04
               4.9591200562914559E-03
              -4.2003887336536788E-03
              -1.0710203320468500E-02
               8.9341539252950544E-03
               1.3735578868731709E-04
               3.5139517066294641E-03
               5.8282694512697981E-03
              -9.9300437447451661E-03
              -1.5783747346228272E-02
               1.0919647552259451E-02
               2.5196837978071979E-03
              -3.0173964053383587E-03
              -1.4354527884264446E-03
              -3.2396552937692812E-03
               4.6753924642206949E-05
               1.5102826713741593E-03
              -1.4491485080678709E-02
               1.2802368893061303E-04
              -8.6081284551725572E-03
               2.6110755886444713E-03
               2.9975545171032980E-03
               1.6198446207468343E-02
              -6.9900394116854045E-03
              -3.5307184150288359E-03
              -1.2667345718288370E-02
               8.3364641453136604E-03
              -2.7944489475328418E-03
              -3.1375294912653335E-03
              -7.4906269999510935E-03
               4.4155873929438080E-03
              -4.9056995301075450E-03
               2.0077223349316012E-02
               1.0335191117389699E-02
               3.4845024422083650E-03
              -9.9538704800247353E-03
              -2.1439003024190631E-03
              -9.6427385958787232E-04
              -6.5634792794662519E-03
              -8.5501400550123882E-03
               4.4521722167101020E-03
               1.2307582854447080E-02
              -5.1325242424099613E-03
               8.1582710245683508E-03
               1.2711067278039891E-03
               8.1401979479484628E-03
               5.3259975669630428E-04
              -3.8880030367479990E-04
              -1.4889522038363166E-02
               7.8501696720014950E-03
              -2.6318463787448265E-03
               1.4434131224528259E-04
               7.5110868159606178E-03
               7.5361237044727879E-03
              -6.4370611140610783E-05
               6.1944919178431052E-03
              -7.3797201927471596E-03
              -1.3478008738114512E-02
               1.4952556158359146E-03
               1.4094224924005947E-03
               4.8463593756967044E-03
              -4.0140401562321140E-03
              -3.5669162521094811E-03
               2.4505048559838150E-01
               1.3417734812403728E-02
              -1.0440916422059313E-02
         &END THERMOSTAT_ENERGY
         &RNG_INIT
Wiener process for Thermostat # 1        1 F T T  -1.5601997779545997E+00        4027757407.0        1559045809.0        3403552754.0        1703120254.0         453778739.0        2861026355.0             12345.0             12345.0             12345.0             12345.0             12345.0             12345.0             12345.0             12345.0             12345.0             12345.0             12345.0             12345.0
Wiener process for Thermostat # 2        1 F T T  -4.0112764818655514E-02        3838101567.0        1430396723.0        1556923290.0        2889325561.0         607612135.0        3761282217.0        3692455944.0        1366884236.0        2968912127.0         335948734.0        4161675175.0         475798818.0        3692455944.0        1366884236.0        2968912127.0         335948734.0        4161675175.0         475798818.0
Wiener process for Thermostat # 3        1 F T T  -2.7485675335982579E-01         482699311.0        2506409672.0        1202736307.0        1073196783.0        1141297417.0        2856513754.0        1015873554.0        1310354410.0        2249465273.0         994084013.0        2912484720.0        3876682925.0        1015873554.0        1310354410.0        2249465273.0         994084013.0        2912484720.0        3876682925.0
Wiener process for Thermostat # 4        1 F T T  -9.8957058820594379E-01        3129827523.0        3549124345.0        1353678049.0        1344233659.0        2578763699.0        1106953444.0        2338701263.0        1119171942.0        2570676563.0         317077452.0        3194180850.0         618832124.0        2338701263.0        1119171942.0        2570676563.0         317077452.0        3194180850.0         618832124.0
Wiener process for Thermostat # 5        1 F T T   8.1743834600370391E-01         587879607.0         702838090.0         820286405.0        1159088393.0        1840431053.0        2379049004.0        1597262096.0        3906379055.0        3312112953.0        1016013135.0        4099474108.0         275305423.0        1597262096.0        3906379055.0        3312112953.0        1016013135.0        4099474108.0         275305423.0
Wiener process for Thermostat # 6        1 F T T  -4.6635220676026440E-01        1255338812.0        2941627828.0        2767710176.0        1701464963.0        2824905014.0        2257709657.0          97147054.0        3131372450.0         829345164.0        3691032523.0        3006063034.0        4259826321.0          97147054.0        3131372450.0         829345164.0        3691032523.0        3006063034.0        4259826321.0
Wiener process for Thermostat # 7        1 F T T  -2.7221417990508723E-01        2928923925.0        1475590831.0        3028549759.0        1729569924.0         123262326.0        1965188850.0         796079799.0        2105258207.0         955365076.0        2923159030.0        4116632677.0        3067683584.0         796079799.0        2105258207.0         955365076.0        2923159030.0        4116632677.0        3067683584.0
Wiener process for Thermostat # 8        1 F T T  -1.3371509559371584E+00        3293786404.0        2324351260.0        4224364702.0        1341956089.0         912321799.0        2697559406.0        3281794178.0        2616230133.0        1457051261.0        2762791137.0        2480527362.0        2282316169.0        3281794178.0        2616230133.0        1457051261.0        2762791137.0        2480527362.0        2282316169.0
Wiener process for Thermostat # 9        1 F T T  -8.7225140957356684E-01         657961678.0        1513147170.0        2219186603.0        4111646695.0         616753226.0        2747528653.0        3777646647.0        1837464056.0        4204654757.0         664239048.0        4190510072.0        2959195122.0        3777646647.0        1837464056.0        4204654757.0         664239048.0        4190510072.0        2959195122.0
Wiener process for Thermostat # 10       1 F T T  -6.2889449580622436E-01          96284293.0        2446379684.0        3801610533.0        2961863039.0        1877110468.0         129512113.0        4215590817.0        3862461878.0        1087200967.0        1544910132.0         936383720.0        1611370123.0        4215590817.0        3862461878.0        1087200967.0        1544910132.0         936383720.0        1611370123.0
Wiener process for Thermostat # 11       1 F T T   5.7191327297384098E-01         909895394.0        1862319182.0        2400367466.0        1201802882.0        2818881371.0          83822050.0        1683636369.0         362165168.0         814316280.0         869382050.0         980203903.0        2062101717.0        1683636369.0         362165168.0         814316280.0         869382050.0         980203903.0        2062101717.0
Wiener process for Thermostat # 12       1 F T T  -2.0098512161557830E-01        4281566709.0        2729512869.0         275332126.0         437149450.0        1041778670.0        1778805263.0         272317999.0         166758548.0         310112982.0         201045826.0        1680231254.0         118290799.0         272317999.0         166758548.0         310112982.0         201045826.0        1680231254.0         118290799.0
Wiener process for Thermostat # 13       1 F T T   9.4560796151122029E-01        3557498645.0        2583014714.0        2425630516.0         920535172.0        3770643442.0         978988578.0        2245755202.0        1652682525.0        2865544364.0         721509566.0         209733568.0         592362218.0        2245755202.0        1652682525.0        2865544364.0         721509566.0         209733568.0         592362218.0